
Version,
  24.1;                                   !- Version Identifier

Timestep,
  1;                                      !- Number of Timesteps per Hour

LifeCycleCost:Parameters,
  Life Cycle Cost Parameters,             !- Name
  EndOfYear,                              !- Discounting Convention
  ConstantDollar,                         !- Inflation Approach
  0.03,                                   !- Real Discount Rate
  ,                                       !- Nominal Discount Rate
  ,                                       !- Inflation
  ,                                       !- Base Date Month
  2011,                                   !- Base Date Year
  ,                                       !- Service Date Month
  2011,                                   !- Service Date Year
  25,                                     !- Length of Study Period in Years
  ,                                       !- Tax rate
  None;                                   !- Depreciation Method

LifeCycleCost:UsePriceEscalation,
  U.S. Avg  Commercial-Electricity,       !- Name
  Electricity,                            !- Resource
  2011,                                   !- Escalation Start Year
  January,                                !- Escalation Start Month
  0.9838,                                 !- Year Escalation 1
  0.9730,                                 !- Year Escalation 2
  0.9632,                                 !- Year Escalation 3
  0.9611,                                 !- Year Escalation 4
  0.9571,                                 !- Year Escalation 5
  0.9553,                                 !- Year Escalation 6
  0.9539,                                 !- Year Escalation 7
  0.9521,                                 !- Year Escalation 8
  0.9546,                                 !- Year Escalation 9
  0.9550,                                 !- Year Escalation 10
  0.9553,                                 !- Year Escalation 11
  0.9564,                                 !- Year Escalation 12
  0.9575,                                 !- Year Escalation 13
  0.9596,                                 !- Year Escalation 14
  0.9618,                                 !- Year Escalation 15
  0.9614,                                 !- Year Escalation 16
  0.9618,                                 !- Year Escalation 17
  0.9618,                                 !- Year Escalation 18
  0.9593,                                 !- Year Escalation 19
  0.9589,                                 !- Year Escalation 20
  0.9607,                                 !- Year Escalation 21
  0.9625,                                 !- Year Escalation 22
  0.9650,                                 !- Year Escalation 23
  0.9708,                                 !- Year Escalation 24
  0.9751,                                 !- Year Escalation 25
  0.9762,                                 !- Year Escalation 26
  0.9766,                                 !- Year Escalation 27
  0.9766,                                 !- Year Escalation 28
  0.9769,                                 !- Year Escalation 29
  0.9773;                                 !- Year Escalation 30

LifeCycleCost:UsePriceEscalation,
  U.S. Avg  Commercial-Distillate Oil,    !- Name
  FuelOilNo1,                             !- Resource
  2011,                                   !- Escalation Start Year
  January,                                !- Escalation Start Month
  0.9714,                                 !- Year Escalation 1
  0.9730,                                 !- Year Escalation 2
  0.9942,                                 !- Year Escalation 3
  1.0164,                                 !- Year Escalation 4
  1.0541,                                 !- Year Escalation 5
  1.0928,                                 !- Year Escalation 6
  1.1267,                                 !- Year Escalation 7
  1.1580,                                 !- Year Escalation 8
  1.1792,                                 !- Year Escalation 9
  1.1967,                                 !- Year Escalation 10
  1.2200,                                 !- Year Escalation 11
  1.2333,                                 !- Year Escalation 12
  1.2566,                                 !- Year Escalation 13
  1.2709,                                 !- Year Escalation 14
  1.2826,                                 !- Year Escalation 15
  1.2985,                                 !- Year Escalation 16
  1.3102,                                 !- Year Escalation 17
  1.3250,                                 !- Year Escalation 18
  1.3261,                                 !- Year Escalation 19
  1.3282,                                 !- Year Escalation 20
  1.3324,                                 !- Year Escalation 21
  1.3356,                                 !- Year Escalation 22
  1.3431,                                 !- Year Escalation 23
  1.3510,                                 !- Year Escalation 24
  1.3568,                                 !- Year Escalation 25
  1.3606,                                 !- Year Escalation 26
  1.3637,                                 !- Year Escalation 27
  1.3674,                                 !- Year Escalation 28
  1.3706,                                 !- Year Escalation 29
  1.3743;                                 !- Year Escalation 30

LifeCycleCost:UsePriceEscalation,
  U.S. Avg  Commercial-Residual Oil,      !- Name
  FuelOilNo2,                             !- Resource
  2011,                                   !- Escalation Start Year
  January,                                !- Escalation Start Month
  0.8469,                                 !- Year Escalation 1
  0.8257,                                 !- Year Escalation 2
  0.8681,                                 !- Year Escalation 3
  0.8988,                                 !- Year Escalation 4
  0.9289,                                 !- Year Escalation 5
  0.9604,                                 !- Year Escalation 6
  0.9897,                                 !- Year Escalation 7
  1.0075,                                 !- Year Escalation 8
  1.0314,                                 !- Year Escalation 9
  1.0554,                                 !- Year Escalation 10
  1.0861,                                 !- Year Escalation 11
  1.1278,                                 !- Year Escalation 12
  1.1497,                                 !- Year Escalation 13
  1.1620,                                 !- Year Escalation 14
  1.1743,                                 !- Year Escalation 15
  1.1852,                                 !- Year Escalation 16
  1.1948,                                 !- Year Escalation 17
  1.2037,                                 !- Year Escalation 18
  1.2071,                                 !- Year Escalation 19
  1.2119,                                 !- Year Escalation 20
  1.2139,                                 !- Year Escalation 21
  1.2194,                                 !- Year Escalation 22
  1.2276,                                 !- Year Escalation 23
  1.2365,                                 !- Year Escalation 24
  1.2420,                                 !- Year Escalation 25
  1.2461,                                 !- Year Escalation 26
  1.2509,                                 !- Year Escalation 27
  1.2550,                                 !- Year Escalation 28
  1.2591,                                 !- Year Escalation 29
  1.2638;                                 !- Year Escalation 30

LifeCycleCost:UsePriceEscalation,
  U.S. Avg  Commercial-Natural gas,       !- Name
  NaturalGas,                             !- Resource
  2011,                                   !- Escalation Start Year
  January,                                !- Escalation Start Month
  0.9823,                                 !- Year Escalation 1
  0.9557,                                 !- Year Escalation 2
  0.9279,                                 !- Year Escalation 3
  0.9257,                                 !- Year Escalation 4
  0.9346,                                 !- Year Escalation 5
  0.9412,                                 !- Year Escalation 6
  0.9512,                                 !- Year Escalation 7
  0.9645,                                 !- Year Escalation 8
  0.9856,                                 !- Year Escalation 9
  1.0067,                                 !- Year Escalation 10
  1.0222,                                 !- Year Escalation 11
  1.0410,                                 !- Year Escalation 12
  1.0610,                                 !- Year Escalation 13
  1.0787,                                 !- Year Escalation 14
  1.0942,                                 !- Year Escalation 15
  1.1098,                                 !- Year Escalation 16
  1.1220,                                 !- Year Escalation 17
  1.1308,                                 !- Year Escalation 18
  1.1386,                                 !- Year Escalation 19
  1.1486,                                 !- Year Escalation 20
  1.1619,                                 !- Year Escalation 21
  1.1763,                                 !- Year Escalation 22
  1.1918,                                 !- Year Escalation 23
  1.2118,                                 !- Year Escalation 24
  1.2284,                                 !- Year Escalation 25
  1.2439,                                 !- Year Escalation 26
  1.2605,                                 !- Year Escalation 27
  1.2772,                                 !- Year Escalation 28
  1.2938,                                 !- Year Escalation 29
  1.3115;                                 !- Year Escalation 30

LifeCycleCost:UsePriceEscalation,
  U.S. Avg  Commercial-Coal,              !- Name
  Coal,                                   !- Resource
  2011,                                   !- Escalation Start Year
  January,                                !- Escalation Start Month
  0.9970,                                 !- Year Escalation 1
  1.0089,                                 !- Year Escalation 2
  1.0089,                                 !- Year Escalation 3
  0.9941,                                 !- Year Escalation 4
  0.9941,                                 !- Year Escalation 5
  1.0000,                                 !- Year Escalation 6
  1.0030,                                 !- Year Escalation 7
  1.0059,                                 !- Year Escalation 8
  1.0089,                                 !- Year Escalation 9
  1.0119,                                 !- Year Escalation 10
  1.0148,                                 !- Year Escalation 11
  1.0178,                                 !- Year Escalation 12
  1.0208,                                 !- Year Escalation 13
  1.0267,                                 !- Year Escalation 14
  1.0297,                                 !- Year Escalation 15
  1.0356,                                 !- Year Escalation 16
  1.0415,                                 !- Year Escalation 17
  1.0534,                                 !- Year Escalation 18
  1.0564,                                 !- Year Escalation 19
  1.0593,                                 !- Year Escalation 20
  1.0653,                                 !- Year Escalation 21
  1.0712,                                 !- Year Escalation 22
  1.0742,                                 !- Year Escalation 23
  1.0801,                                 !- Year Escalation 24
  1.0831,                                 !- Year Escalation 25
  1.0831,                                 !- Year Escalation 26
  1.0861,                                 !- Year Escalation 27
  1.0890,                                 !- Year Escalation 28
  1.0920,                                 !- Year Escalation 29
  1.0950;                                 !- Year Escalation 30

Building,
  Project Name,                           !- Name
  ,                                       !- North Axis {deg}
  ,                                       !- Terrain
  0.1,                                    !- Loads Convergence Tolerance Value {W}
  0.5,                                    !- Temperature Convergence Tolerance Value {deltaC}
  FullExterior,                           !- Solar Distribution
  25,                                     !- Maximum Number of Warmup Days
  6;                                      !- Minimum Number of Warmup Days

Shading:Building:Detailed,
  su-x-s-16,                              !- Name
  ,                                       !- Transmittance Schedule Name
  ,                                       !- Number of Vertices
  -2.8595592, -0.0030522, 4.09575,        !- X,Y,Z Vertex 1 {m}
  -2.8595592, -0.0030522, 6.096,          !- X,Y,Z Vertex 2 {m}
  -0.1925591, -0.0030522, 6.096;          !- X,Y,Z Vertex 3 {m}

Shading:Building:Detailed,
  su-x-s-17,                              !- Name
  ,                                       !- Transmittance Schedule Name
  ,                                       !- Number of Vertices
  0.5694409, -0.0030522, 6.096,           !- X,Y,Z Vertex 1 {m}
  3.2364408, -0.0030522, 6.096,           !- X,Y,Z Vertex 2 {m}
  3.2364408, -0.0030522, 4.09575;         !- X,Y,Z Vertex 3 {m}

Zone,
  100 room 1,                             !- Name
  ,                                       !- Direction of Relative North {deg}
  0,                                      !- X Origin {m}
  0,                                      !- Y Origin {m}
  0,                                      !- Z Origin {m}
  ,                                       !- Type
  1,                                      !- Multiplier
  ,                                       !- Ceiling Height {m}
  449.1446129,                            !- Volume {m3}
  ,                                       !- Floor Area {m2}
  ,                                       !- Zone Inside Convection Algorithm
  ,                                       !- Zone Outside Convection Algorithm
  Yes;                                    !- Part of Total Floor Area

Space,
  sp-100room1,                            !- Name
  100 room 1,                             !- Zone Name
  ,                                       !- Ceiling Height {m}
  449.1446129,                            !- Volume {m3}
  ;                                       !- Floor Area {m2}

BuildingSurface:Detailed,
  su-b-100-e-f-8,                         !- Name
  Floor,                                  !- Surface Type
  su-b-100-e-f-8 Custom R-Value 5.0 Const, !- Construction Name
  100 room 1,                             !- Zone Name
  sp-100room1,                            !- Space Name
  Ground,                                 !- Outside Boundary Condition
  ,                                       !- Outside Boundary Condition Object
  NoSun,                                  !- Sun Exposure
  NoWind,                                 !- Wind Exposure
  ,                                       !- View Factor to Ground
  ,                                       !- Number of Vertices
  -2.9611591, -0.0030522, 0,              !- X,Y,Z Vertex 1 {m}
  -2.9611591, 15.3385478, 0,              !- X,Y,Z Vertex 2 {m}
  3.3380409, 15.3385478, 0,               !- X,Y,Z Vertex 3 {m}
  3.3380409, -0.0030522, 0;               !- X,Y,Z Vertex 4 {m}

BuildingSurface:Detailed,
  su-e-100-e-w-5,                         !- Name
  Wall,                                   !- Surface Type
  su-e-100-e-w-5 Custom R-Value 5.0 Const, !- Construction Name
  100 room 1,                             !- Zone Name
  sp-100room1,                            !- Space Name
  Outdoors,                               !- Outside Boundary Condition
  ,                                       !- Outside Boundary Condition Object
  SunExposed,                             !- Sun Exposure
  WindExposed,                            !- Wind Exposure
  ,                                       !- View Factor to Ground
  ,                                       !- Number of Vertices
  3.3380409, -0.0030522, 0,               !- X,Y,Z Vertex 1 {m}
  3.3380409, 15.3385478, 0,               !- X,Y,Z Vertex 2 {m}
  3.3380409, 15.3385478, 4.01955,         !- X,Y,Z Vertex 3 {m}
  3.3380409, -0.0030522, 4.01955;         !- X,Y,Z Vertex 4 {m}

FenestrationSurface:Detailed,
  op-4,                                   !- Name
  Window,                                 !- Surface Type
  op-4 Custom R-Value 5.0 Const,          !- Construction Name
  su-e-100-e-w-5,                         !- Building Surface Name
  ,                                       !- Outside Boundary Condition Object
  ,                                       !- View Factor to Ground
  ,                                       !- Frame and Divider Name
  ,                                       !- Multiplier
  ,                                       !- Number of Vertices
  3.338041, 10.6701988888378, 0.919650988837843, !- X,Y,Z Vertex 1 {m}
  3.338041, 11.5740969111622, 0.919650988837843, !- X,Y,Z Vertex 2 {m}
  3.338041, 11.5740969111622, 2.12834901116216, !- X,Y,Z Vertex 3 {m}
  3.338041, 10.6701988888378, 2.12834901116216; !- X,Y,Z Vertex 4 {m}

BuildingSurface:Detailed,
  su-n-100-e-w-6,                         !- Name
  Wall,                                   !- Surface Type
  su-n-100-e-w-6 Custom R-Value 5.0 Const, !- Construction Name
  100 room 1,                             !- Zone Name
  sp-100room1,                            !- Space Name
  Outdoors,                               !- Outside Boundary Condition
  ,                                       !- Outside Boundary Condition Object
  SunExposed,                             !- Sun Exposure
  WindExposed,                            !- Wind Exposure
  ,                                       !- View Factor to Ground
  ,                                       !- Number of Vertices
  -2.9611591, 15.3385478, 0,              !- X,Y,Z Vertex 1 {m}
  -2.9611591, 15.3385478, 4.01955,        !- X,Y,Z Vertex 2 {m}
  3.3380409, 15.3385478, 4.01955,         !- X,Y,Z Vertex 3 {m}
  3.3380409, 15.3385478, 0;               !- X,Y,Z Vertex 4 {m}

BuildingSurface:Detailed,
  su-n-101-100-i-w-15 Reversed,           !- Name
  Wall,                                   !- Surface Type
  su-n-101-100-i-w-15 Reversed Custom R-Value 5.0 Const, !- Construction Name
  100 room 1,                             !- Zone Name
  sp-100room1,                            !- Space Name
  Surface,                                !- Outside Boundary Condition
  su-n-101-100-i-w-15,                    !- Outside Boundary Condition Object
  NoSun,                                  !- Sun Exposure
  NoWind,                                 !- Wind Exposure
  ,                                       !- View Factor to Ground
  ,                                       !- Number of Vertices
  3.3380409, -0.0030522, 0,               !- X,Y,Z Vertex 1 {m}
  3.3380409, -0.0030522, 4.01955,         !- X,Y,Z Vertex 2 {m}
  0.1884409, -0.0030522, 6.38175,         !- X,Y,Z Vertex 3 {m}
  -2.9611591, -0.0030522, 4.01955,        !- X,Y,Z Vertex 4 {m}
  -2.9611591, -0.0030522, 0;              !- X,Y,Z Vertex 5 {m}

BuildingSurface:Detailed,
  su-t-100-e-r-11,                        !- Name
  Roof,                                   !- Surface Type
  su-t-100-e-r-11 Custom R-Value 5.0 Const, !- Construction Name
  100 room 1,                             !- Zone Name
  sp-100room1,                            !- Space Name
  Outdoors,                               !- Outside Boundary Condition
  ,                                       !- Outside Boundary Condition Object
  SunExposed,                             !- Sun Exposure
  WindExposed,                            !- Wind Exposure
  ,                                       !- View Factor to Ground
  ,                                       !- Number of Vertices
  0.1884409, -0.0030522, 6.38175,         !- X,Y,Z Vertex 1 {m}
  3.3380409, -0.0030522, 4.01955,         !- X,Y,Z Vertex 2 {m}
  3.3380409, 15.3385478, 4.01955,         !- X,Y,Z Vertex 3 {m}
  0.1884409, 12.1889478, 6.38175;         !- X,Y,Z Vertex 4 {m}

BuildingSurface:Detailed,
  su-t-100-e-r-14,                        !- Name
  Roof,                                   !- Surface Type
  su-t-100-e-r-14 Custom R-Value 5.0 Const, !- Construction Name
  100 room 1,                             !- Zone Name
  sp-100room1,                            !- Space Name
  Outdoors,                               !- Outside Boundary Condition
  ,                                       !- Outside Boundary Condition Object
  SunExposed,                             !- Sun Exposure
  WindExposed,                            !- Wind Exposure
  ,                                       !- View Factor to Ground
  ,                                       !- Number of Vertices
  -2.9611591, -0.0030522, 4.01955,        !- X,Y,Z Vertex 1 {m}
  0.1884409, -0.0030522, 6.38175,         !- X,Y,Z Vertex 2 {m}
  0.1884409, 12.1889478, 6.38175,         !- X,Y,Z Vertex 3 {m}
  -2.9611591, 15.3385478, 4.01955;        !- X,Y,Z Vertex 4 {m}

BuildingSurface:Detailed,
  su-t-100-e-r-9,                         !- Name
  Roof,                                   !- Surface Type
  su-t-100-e-r-9 Custom R-Value 5.0 Const, !- Construction Name
  100 room 1,                             !- Zone Name
  sp-100room1,                            !- Space Name
  Outdoors,                               !- Outside Boundary Condition
  ,                                       !- Outside Boundary Condition Object
  SunExposed,                             !- Sun Exposure
  WindExposed,                            !- Wind Exposure
  ,                                       !- View Factor to Ground
  ,                                       !- Number of Vertices
  -2.9611591, 15.3385478, 4.01955,        !- X,Y,Z Vertex 1 {m}
  0.1884409, 12.1889478, 6.38175,         !- X,Y,Z Vertex 2 {m}
  3.3380409, 15.3385478, 4.01955;         !- X,Y,Z Vertex 3 {m}

BuildingSurface:Detailed,
  su-w-100-e-w-2,                         !- Name
  Wall,                                   !- Surface Type
  su-w-100-e-w-2 Custom R-Value 5.0 Const, !- Construction Name
  100 room 1,                             !- Zone Name
  sp-100room1,                            !- Space Name
  Outdoors,                               !- Outside Boundary Condition
  ,                                       !- Outside Boundary Condition Object
  SunExposed,                             !- Sun Exposure
  WindExposed,                            !- Wind Exposure
  ,                                       !- View Factor to Ground
  ,                                       !- Number of Vertices
  -2.9611591, -0.0030522, 0,              !- X,Y,Z Vertex 1 {m}
  -2.9611591, -0.0030522, 4.01955,        !- X,Y,Z Vertex 2 {m}
  -2.9611591, 15.3385478, 4.01955,        !- X,Y,Z Vertex 3 {m}
  -2.9611591, 15.3385478, 0;              !- X,Y,Z Vertex 4 {m}

FenestrationSurface:Detailed,
  op-3,                                   !- Name
  GlassDoor,                              !- Surface Type
  op-3 Custom R-Value 5.0 Const,          !- Construction Name
  su-w-100-e-w-2,                         !- Building Surface Name
  ,                                       !- Outside Boundary Condition Object
  ,                                       !- View Factor to Ground
  ,                                       !- Frame and Divider Name
  ,                                       !- Multiplier
  ,                                       !- Number of Vertices
  -2.9611591, 7.15713582704599, 0.0069129270459942, !- X,Y,Z Vertex 1 {m}
  -2.9611591, 7.15713582704599, 2.12668707295401, !- X,Y,Z Vertex 2 {m}
  -2.9611591, 8.15931017295401, 2.12668707295401, !- X,Y,Z Vertex 3 {m}
  -2.9611591, 8.15931017295401, 0.0069129270459942; !- X,Y,Z Vertex 4 {m}

Lights,
  sp-100room1_lights,                     !- Name
  sp-100room1,                            !- Zone or ZoneList or Space or SpaceList Name
  Office Lighting - 6 AM to 11 PM,        !- Schedule Name
  Watts/Area,                             !- Design Level Calculation Method
  ,                                       !- Lighting Level {W}
  10.7639104,                             !- Watts per Floor Area {W/m2}
  ,                                       !- Watts per Person {W/person}
  ,                                       !- Return Air Fraction
  ,                                       !- Fraction Radiant
  ,                                       !- Fraction Visible
  1,                                      !- Fraction Replaceable
  General;                                !- End-Use Subcategory

ScheduleTypeLimits,
  Fractional,                             !- Name
  0,                                      !- Lower Limit Value {BasedOnField A3}
  1,                                      !- Upper Limit Value {BasedOnField A3}
  Continuous;                             !- Numeric Type

Schedule:Day:Interval,
  Office Lighting - 6 AM to 11 PM wshc-officelighting-6amto11pm, !- Name
  Fractional,                             !- Schedule Type Limits Name
  No,                                     !- Interpolate to Timestep
  06:00,                                  !- Time 1 {hh:mm}
  0,                                      !- Value Until Time 1
  07:00,                                  !- Time 2 {hh:mm}
  0.1,                                    !- Value Until Time 2
  08:00,                                  !- Time 3 {hh:mm}
  0.3,                                    !- Value Until Time 3
  12:00,                                  !- Time 4 {hh:mm}
  0.9,                                    !- Value Until Time 4
  13:00,                                  !- Time 5 {hh:mm}
  0.8,                                    !- Value Until Time 5
  17:00,                                  !- Time 6 {hh:mm}
  0.9,                                    !- Value Until Time 6
  18:00,                                  !- Time 7 {hh:mm}
  0.5,                                    !- Value Until Time 7
  20:00,                                  !- Time 8 {hh:mm}
  0.3,                                    !- Value Until Time 8
  22:00,                                  !- Time 9 {hh:mm}
  0.2,                                    !- Value Until Time 9
  24:00,                                  !- Time 10 {hh:mm}
  0;                                      !- Value Until Time 10

Schedule:Week:Daily,
  Office Lighting - 6 AM to 11 PM Week Rule - Jan1-Dec31, !- Name
  Office Lighting - 6 AM to 11 PM wshc-officelighting-6amto11pm, !- Sunday Schedule:Day Name
  Office Lighting - 6 AM to 11 PM wshc-officelighting-6amto11pm, !- Monday Schedule:Day Name
  Office Lighting - 6 AM to 11 PM wshc-officelighting-6amto11pm, !- Tuesday Schedule:Day Name
  Office Lighting - 6 AM to 11 PM wshc-officelighting-6amto11pm, !- Wednesday Schedule:Day Name
  Office Lighting - 6 AM to 11 PM wshc-officelighting-6amto11pm, !- Thursday Schedule:Day Name
  Office Lighting - 6 AM to 11 PM wshc-officelighting-6amto11pm, !- Friday Schedule:Day Name
  Office Lighting - 6 AM to 11 PM wshc-officelighting-6amto11pm, !- Saturday Schedule:Day Name
  Schedule Day 4,                         !- Holiday Schedule:Day Name
  Office Lighting - 6 AM to 11 PM Summer Design Day, !- SummerDesignDay Schedule:Day Name
  Office Lighting - 6 AM to 11 PM Winter Design Day, !- WinterDesignDay Schedule:Day Name
  Schedule Day 4,                         !- CustomDay1 Schedule:Day Name
  Schedule Day 4;                         !- CustomDay2 Schedule:Day Name

Schedule:Year,
  Office Lighting - 6 AM to 11 PM,        !- Name
  Fractional,                             !- Schedule Type Limits Name
  Office Lighting - 6 AM to 11 PM Week Rule - Jan1-Dec31, !- Schedule:Week Name 1
  1,                                      !- Start Month 1
  1,                                      !- Start Day 1
  12,                                     !- End Month 1
  31;                                     !- End Day 1

Schedule:Day:Interval,
  Schedule Day 4,                         !- Name
  Fractional,                             !- Schedule Type Limits Name
  No,                                     !- Interpolate to Timestep
  24:00,                                  !- Time 1 {hh:mm}
  0;                                      !- Value Until Time 1

Schedule:Day:Interval,
  Office Lighting - 6 AM to 11 PM Summer Design Day, !- Name
  Fractional,                             !- Schedule Type Limits Name
  No,                                     !- Interpolate to Timestep
  24:00,                                  !- Time 1 {hh:mm}
  1;                                      !- Value Until Time 1

Schedule:Day:Interval,
  Office Lighting - 6 AM to 11 PM Winter Design Day, !- Name
  Fractional,                             !- Schedule Type Limits Name
  No,                                     !- Interpolate to Timestep
  24:00,                                  !- Time 1 {hh:mm}
  0;                                      !- Value Until Time 1

People,
  sp-100room1 People,                     !- Name
  sp-100room1,                            !- Zone or ZoneList or Space or SpaceList Name
  sp-100room1 Number of People Sch,       !- Number of People Schedule Name
  People,                                 !- Number of People Calculation Method
  2.5,                                    !- Number of People
  ,                                       !- People per Floor Area {person/m2}
  ,                                       !- Floor Area per Person {m2/person}
  0.3,                                    !- Fraction Radiant
  ,                                       !- Sensible Heat Fraction
  sp-100room1 Activity Sch;               !- Activity Level Schedule Name

Schedule:Day:Interval,
  sp-100room1 Number of People Default,   !- Name
  Fractional,                             !- Schedule Type Limits Name
  No,                                     !- Interpolate to Timestep
  24:00,                                  !- Time 1 {hh:mm}
  1;                                      !- Value Until Time 1

Schedule:Week:Daily,
  sp-100room1 Number of People Sch Week Rule - Jan1-Dec31, !- Name
  sp-100room1 Number of People Default,   !- Sunday Schedule:Day Name
  sp-100room1 Number of People Default,   !- Monday Schedule:Day Name
  sp-100room1 Number of People Default,   !- Tuesday Schedule:Day Name
  sp-100room1 Number of People Default,   !- Wednesday Schedule:Day Name
  sp-100room1 Number of People Default,   !- Thursday Schedule:Day Name
  sp-100room1 Number of People Default,   !- Friday Schedule:Day Name
  sp-100room1 Number of People Default,   !- Saturday Schedule:Day Name
  sp-100room1 Number of People Default,   !- Holiday Schedule:Day Name
  sp-100room1 Number of People Default,   !- SummerDesignDay Schedule:Day Name
  sp-100room1 Number of People Default,   !- WinterDesignDay Schedule:Day Name
  sp-100room1 Number of People Default,   !- CustomDay1 Schedule:Day Name
  sp-100room1 Number of People Default;   !- CustomDay2 Schedule:Day Name

Schedule:Year,
  sp-100room1 Number of People Sch,       !- Name
  Fractional,                             !- Schedule Type Limits Name
  sp-100room1 Number of People Sch Week Rule - Jan1-Dec31, !- Schedule:Week Name 1
  1,                                      !- Start Month 1
  1,                                      !- Start Day 1
  12,                                     !- End Month 1
  31;                                     !- End Day 1

ScheduleTypeLimits,
  ActivityLevel,                          !- Name
  0,                                      !- Lower Limit Value {BasedOnField A3}
  ,                                       !- Upper Limit Value {BasedOnField A3}
  Continuous,                             !- Numeric Type
  activitylevel;                          !- Unit Type

Schedule:Day:Interval,
  sp-100room1 Activity Default,           !- Name
  ActivityLevel,                          !- Schedule Type Limits Name
  No,                                     !- Interpolate to Timestep
  24:00,                                  !- Time 1 {hh:mm}
  120;                                    !- Value Until Time 1

Schedule:Week:Daily,
  sp-100room1 Activity Sch Week Rule - Jan1-Dec31, !- Name
  sp-100room1 Activity Default,           !- Sunday Schedule:Day Name
  sp-100room1 Activity Default,           !- Monday Schedule:Day Name
  sp-100room1 Activity Default,           !- Tuesday Schedule:Day Name
  sp-100room1 Activity Default,           !- Wednesday Schedule:Day Name
  sp-100room1 Activity Default,           !- Thursday Schedule:Day Name
  sp-100room1 Activity Default,           !- Friday Schedule:Day Name
  sp-100room1 Activity Default,           !- Saturday Schedule:Day Name
  sp-100room1 Activity Default,           !- Holiday Schedule:Day Name
  sp-100room1 Activity Default,           !- SummerDesignDay Schedule:Day Name
  sp-100room1 Activity Default,           !- WinterDesignDay Schedule:Day Name
  sp-100room1 Activity Default,           !- CustomDay1 Schedule:Day Name
  sp-100room1 Activity Default;           !- CustomDay2 Schedule:Day Name

Schedule:Year,
  sp-100room1 Activity Sch,               !- Name
  ActivityLevel,                          !- Schedule Type Limits Name
  sp-100room1 Activity Sch Week Rule - Jan1-Dec31, !- Schedule:Week Name 1
  1,                                      !- Start Month 1
  1,                                      !- Start Day 1
  12,                                     !- End Month 1
  31;                                     !- End Day 1

ElectricEquipment,
  sp-100room1_elec_equip,                 !- Name
  sp-100room1,                            !- Zone or ZoneList or Space or SpaceList Name
  Office Lighting - 6 AM to 11 PM,        !- Schedule Name
  Watts/Area,                             !- Design Level Calculation Method
  ,                                       !- Design Level {W}
  13.9930835,                             !- Watts per Floor Area {W/m2}
  ,                                       !- Watts per Person {W/person}
  ,                                       !- Fraction Latent
  ,                                       !- Fraction Radiant
  ,                                       !- Fraction Lost
  General;                                !- End-Use Subcategory

ZoneInfiltration:DesignFlowRate,
  sp-100room1 Infiltration,               !- Name
  sp-100room1,                            !- Zone or ZoneList or Space or SpaceList Name
  infil_bldg,                             !- Schedule Name
  AirChanges/Hour,                        !- Design Flow Rate Calculation Method
  ,                                       !- Design Flow Rate {m3/s}
  ,                                       !- Flow Rate per Floor Area {m3/s-m2}
  ,                                       !- Flow Rate per Exterior Surface Area {m3/s-m2}
  0.5,                                    !- Air Changes per Hour {1/hr}
  1,                                      !- Constant Term Coefficient
  0,                                      !- Temperature Term Coefficient
  0,                                      !- Velocity Term Coefficient
  0;                                      !- Velocity Squared Term Coefficient

ZoneControl:Thermostat,
  100 room 1 Thermostat,                  !- Name
  100 room 1,                             !- Zone or ZoneList Name
  100 room 1 Thermostat Schedule,         !- Control Type Schedule Name
  ThermostatSetpoint:DualSetpoint,        !- Control 1 Object Type
  Thermostat Setpoint Dual Setpoint 1,    !- Control 1 Name
  ,                                       !- Control 2 Object Type
  ,                                       !- Control 2 Name
  ,                                       !- Control 3 Object Type
  ,                                       !- Control 3 Name
  ,                                       !- Control 4 Object Type
  ,                                       !- Control 4 Name
  0;                                      !- Temperature Difference Between Cutout And Setpoint {deltaC}

Schedule:Compact,
  100 room 1 Thermostat Schedule,         !- Name
  100 room 1 Thermostat Schedule Type Limits, !- Schedule Type Limits Name
  Through: 12/31,                         !- Field 1
  For: AllDays,                           !- Field 2
  Until: 24:00,                           !- Field 3
  4;                                      !- Field 4

ScheduleTypeLimits,
  100 room 1 Thermostat Schedule Type Limits, !- Name
  0,                                      !- Lower Limit Value {BasedOnField A3}
  4,                                      !- Upper Limit Value {BasedOnField A3}
  DISCRETE;                               !- Numeric Type

ThermostatSetpoint:DualSetpoint,
  Thermostat Setpoint Dual Setpoint 1,    !- Name
  sp-100room1 Heating Sch,                !- Heating Setpoint Temperature Schedule Name
  sp-100room1 Cooling Sch;                !- Cooling Setpoint Temperature Schedule Name

ScheduleTypeLimits,
  Temperature,                            !- Name
  ,                                       !- Lower Limit Value {BasedOnField A3}
  ,                                       !- Upper Limit Value {BasedOnField A3}
  Continuous,                             !- Numeric Type
  temperature;                            !- Unit Type

Schedule:Day:Interval,
  sp-100room1 Heating Default,            !- Name
  Temperature,                            !- Schedule Type Limits Name
  No,                                     !- Interpolate to Timestep
  24:00,                                  !- Time 1 {hh:mm}
  21.1111111111111;                       !- Value Until Time 1

Schedule:Week:Daily,
  sp-100room1 Heating Sch Week Rule - Jan1-Dec31, !- Name
  sp-100room1 Heating Default,            !- Sunday Schedule:Day Name
  sp-100room1 Heating Default,            !- Monday Schedule:Day Name
  sp-100room1 Heating Default,            !- Tuesday Schedule:Day Name
  sp-100room1 Heating Default,            !- Wednesday Schedule:Day Name
  sp-100room1 Heating Default,            !- Thursday Schedule:Day Name
  sp-100room1 Heating Default,            !- Friday Schedule:Day Name
  sp-100room1 Heating Default,            !- Saturday Schedule:Day Name
  sp-100room1 Heating Default,            !- Holiday Schedule:Day Name
  sp-100room1 Heating Default,            !- SummerDesignDay Schedule:Day Name
  sp-100room1 Heating Default,            !- WinterDesignDay Schedule:Day Name
  sp-100room1 Heating Default,            !- CustomDay1 Schedule:Day Name
  sp-100room1 Heating Default;            !- CustomDay2 Schedule:Day Name

Schedule:Year,
  sp-100room1 Heating Sch,                !- Name
  Temperature,                            !- Schedule Type Limits Name
  sp-100room1 Heating Sch Week Rule - Jan1-Dec31, !- Schedule:Week Name 1
  1,                                      !- Start Month 1
  1,                                      !- Start Day 1
  12,                                     !- End Month 1
  31;                                     !- End Day 1

Schedule:Day:Interval,
  sp-100room1 Cooling Default,            !- Name
  Temperature,                            !- Schedule Type Limits Name
  No,                                     !- Interpolate to Timestep
  24:00,                                  !- Time 1 {hh:mm}
  23.8888888888889;                       !- Value Until Time 1

Schedule:Week:Daily,
  sp-100room1 Cooling Sch Week Rule - Jan1-Dec31, !- Name
  sp-100room1 Cooling Default,            !- Sunday Schedule:Day Name
  sp-100room1 Cooling Default,            !- Monday Schedule:Day Name
  sp-100room1 Cooling Default,            !- Tuesday Schedule:Day Name
  sp-100room1 Cooling Default,            !- Wednesday Schedule:Day Name
  sp-100room1 Cooling Default,            !- Thursday Schedule:Day Name
  sp-100room1 Cooling Default,            !- Friday Schedule:Day Name
  sp-100room1 Cooling Default,            !- Saturday Schedule:Day Name
  sp-100room1 Cooling Default,            !- Holiday Schedule:Day Name
  sp-100room1 Cooling Default,            !- SummerDesignDay Schedule:Day Name
  sp-100room1 Cooling Default,            !- WinterDesignDay Schedule:Day Name
  sp-100room1 Cooling Default,            !- CustomDay1 Schedule:Day Name
  sp-100room1 Cooling Default;            !- CustomDay2 Schedule:Day Name

Schedule:Year,
  sp-100room1 Cooling Sch,                !- Name
  Temperature,                            !- Schedule Type Limits Name
  sp-100room1 Cooling Sch Week Rule - Jan1-Dec31, !- Schedule:Week Name 1
  1,                                      !- Start Month 1
  1,                                      !- Start Day 1
  12,                                     !- End Month 1
  31;                                     !- End Day 1

ZoneControl:Humidistat,
  Zone Control Humidistat 1,              !- Name
  100 room 1,                             !- Zone Name
  Dehumidifying Setpoint Schedule;        !- Humidifying Relative Humidity Setpoint Schedule Name

ScheduleTypeLimits,
  Percent,                                !- Name
  0,                                      !- Lower Limit Value {BasedOnField A3}
  100,                                    !- Upper Limit Value {BasedOnField A3}
  Continuous,                             !- Numeric Type
  percent;                                !- Unit Type

Schedule:Day:Interval,
  Dehumidifying Setpoint Schedule Dehumidifying Setpoint Default Day Schedule, !- Name
  Percent,                                !- Schedule Type Limits Name
  No,                                     !- Interpolate to Timestep
  05:30,                                  !- Time 1 {hh:mm}
  0,                                      !- Value Until Time 1
  22:00,                                  !- Time 2 {hh:mm}
  70,                                     !- Value Until Time 2
  24:00,                                  !- Time 3 {hh:mm}
  0;                                      !- Value Until Time 3

Schedule:Week:Daily,
  Dehumidifying Setpoint Schedule Week Rule - Jan1-Dec31, !- Name
  Dehumidifying Setpoint Schedule Dehumidifying Setpoint Default Day Schedule, !- Sunday Schedule:Day Name
  Dehumidifying Setpoint Schedule Dehumidifying Setpoint Default Day Schedule, !- Monday Schedule:Day Name
  Dehumidifying Setpoint Schedule Dehumidifying Setpoint Default Day Schedule, !- Tuesday Schedule:Day Name
  Dehumidifying Setpoint Schedule Dehumidifying Setpoint Default Day Schedule, !- Wednesday Schedule:Day Name
  Dehumidifying Setpoint Schedule Dehumidifying Setpoint Default Day Schedule, !- Thursday Schedule:Day Name
  Dehumidifying Setpoint Schedule Dehumidifying Setpoint Default Day Schedule, !- Friday Schedule:Day Name
  Dehumidifying Setpoint Schedule Dehumidifying Setpoint Default Day Schedule, !- Saturday Schedule:Day Name
  Dehumidifying Setpoint Schedule Dehumidifying Setpoint Default Day Schedule, !- Holiday Schedule:Day Name
  Dehumidifying Setpoint Schedule Summer Design Day, !- SummerDesignDay Schedule:Day Name
  Dehumidifying Setpoint Schedule Winter Design Day, !- WinterDesignDay Schedule:Day Name
  Dehumidifying Setpoint Schedule Dehumidifying Setpoint Default Day Schedule, !- CustomDay1 Schedule:Day Name
  Dehumidifying Setpoint Schedule Dehumidifying Setpoint Default Day Schedule; !- CustomDay2 Schedule:Day Name

Schedule:Year,
  Dehumidifying Setpoint Schedule,        !- Name
  Percent,                                !- Schedule Type Limits Name
  Dehumidifying Setpoint Schedule Week Rule - Jan1-Dec31, !- Schedule:Week Name 1
  1,                                      !- Start Month 1
  1,                                      !- Start Day 1
  12,                                     !- End Month 1
  31;                                     !- End Day 1

Schedule:Day:Interval,
  Dehumidifying Setpoint Schedule Summer Design Day, !- Name
  Percent,                                !- Schedule Type Limits Name
  No,                                     !- Interpolate to Timestep
  24:00,                                  !- Time 1 {hh:mm}
  70;                                     !- Value Until Time 1

Schedule:Day:Interval,
  Dehumidifying Setpoint Schedule Winter Design Day, !- Name
  Percent,                                !- Schedule Type Limits Name
  No,                                     !- Interpolate to Timestep
  24:00,                                  !- Time 1 {hh:mm}
  70;                                     !- Value Until Time 1

HVACTemplate:Zone:IdealLoadsAirSystem,
  100 room 1,                             !- Zone Name
  ,                                       !- Template Thermostat Name
  ,                                       !- System Availability Schedule Name
  ,                                       !- Maximum Heating Supply Air Temperature {C}
  ,                                       !- Minimum Cooling Supply Air Temperature {C}
  ,                                       !- Maximum Heating Supply Air Humidity Ratio {kgWater/kgDryAir}
  ,                                       !- Minimum Cooling Supply Air Humidity Ratio {kgWater/kgDryAir}
  ,                                       !- Heating Limit
  ,                                       !- Maximum Heating Air Flow Rate {m3/s}
  ,                                       !- Maximum Sensible Heating Capacity {W}
  ,                                       !- Cooling Limit
  ,                                       !- Maximum Cooling Air Flow Rate {m3/s}
  ,                                       !- Maximum Total Cooling Capacity {W}
  ,                                       !- Heating Availability Schedule Name
  ,                                       !- Cooling Availability Schedule Name
  ,                                       !- Dehumidification Control Type
  ,                                       !- Cooling Sensible Heat Ratio {dimensionless}
  ,                                       !- Dehumidification Setpoint {percent}
  ,                                       !- Humidification Control Type
  ,                                       !- Humidification Setpoint {percent}
  ,                                       !- Outdoor Air Method
  ,                                       !- Outdoor Air Flow Rate per Person {m3/s}
  ,                                       !- Outdoor Air Flow Rate per Zone Floor Area {m3/s-m2}
  ,                                       !- Outdoor Air Flow Rate per Zone {m3/s}
  ,                                       !- Design Specification Outdoor Air Object Name
  ;                                       !- Demand Controlled Ventilation Type

Sizing:Zone,
  100 room 1,                             !- Zone or ZoneList Name
  SupplyAirTemperature,                   !- Zone Cooling Design Supply Air Temperature Input Method
  14,                                     !- Zone Cooling Design Supply Air Temperature {C}
  11.11,                                  !- Zone Cooling Design Supply Air Temperature Difference {deltaC}
  SupplyAirTemperature,                   !- Zone Heating Design Supply Air Temperature Input Method
  40,                                     !- Zone Heating Design Supply Air Temperature {C}
  11.11,                                  !- Zone Heating Design Supply Air Temperature Difference {deltaC}
  0.0085,                                 !- Zone Cooling Design Supply Air Humidity Ratio {kgWater/kgDryAir}
  0.005,                                  !- Zone Heating Design Supply Air Humidity Ratio {kgWater/kgDryAir}
  100 room 1 DSOA Space List,             !- Design Specification Outdoor Air Object Name
  ,                                       !- Zone Heating Sizing Factor
  ,                                       !- Zone Cooling Sizing Factor
  DesignDay,                              !- Cooling Design Air Flow Method
  0,                                      !- Cooling Design Air Flow Rate {m3/s}
  0.000762,                               !- Cooling Minimum Air Flow per Zone Floor Area {m3/s-m2}
  0,                                      !- Cooling Minimum Air Flow {m3/s}
  0,                                      !- Cooling Minimum Air Flow Fraction
  DesignDay,                              !- Heating Design Air Flow Method
  0,                                      !- Heating Design Air Flow Rate {m3/s}
  0.002032,                               !- Heating Maximum Air Flow per Zone Floor Area {m3/s-m2}
  0.1415762,                              !- Heating Maximum Air Flow {m3/s}
  0.3,                                    !- Heating Maximum Air Flow Fraction
  ,                                       !- Design Specification Zone Air Distribution Object Name
  No,                                     !- Account for Dedicated Outdoor Air System
  ,                                       !- Dedicated Outdoor Air System Control Strategy
  ,                                       !- Dedicated Outdoor Air Low Setpoint Temperature for Design {C}
  ,                                       !- Dedicated Outdoor Air High Setpoint Temperature for Design {C}
  Sensible Load Only No Latent Load,      !- Zone Load Sizing Method
  HumidityRatioDifference,                !- Zone Latent Cooling Design Supply Air Humidity Ratio Input Method
  ,                                       !- Zone Dehumidification Design Supply Air Humidity Ratio {kgWater/kgDryAir}
  0.005,                                  !- Zone Cooling Design Supply Air Humidity Ratio Difference {kgWater/kgDryAir}
  HumidityRatioDifference,                !- Zone Latent Heating Design Supply Air Humidity Ratio Input Method
  ,                                       !- Zone Humidification Design Supply Air Humidity Ratio {kgWater/kgDryAir}
  0.005;                                  !- Zone Humidification Design Supply Air Humidity Ratio Difference {kgWater/kgDryAir}

DesignSpecification:OutdoorAir,
  sp-100room1_ventilation,                !- Name
  Sum,                                    !- Outdoor Air Method
  0.002359737216,                         !- Outdoor Air Flow per Person {m3/s-person}
  0.0003048,                              !- Outdoor Air Flow per Zone Floor Area {m3/s-m2}
  0,                                      !- Outdoor Air Flow per Zone {m3/s}
  0;                                      !- Outdoor Air Flow Air Changes per Hour {1/hr}

DesignSpecification:OutdoorAir:SpaceList,
  100 room 1 DSOA Space List,             !- Name
  sp-100room1,                            !- Space Name 1
  sp-100room1_ventilation;                !- Space Design Specification Outdoor Air Object Name 1

ZoneVentilation:DesignFlowRate,
  100 room 1 Ventilation per Person,      !- Name
  100 room 1,                             !- Zone or ZoneList or Space or SpaceList Name
  sp-100room1 Number of People Sch,       !- Schedule Name
  Flow/Person,                            !- Design Flow Rate Calculation Method
  ,                                       !- Design Flow Rate {m3/s}
  ,                                       !- Flow Rate per Floor Area {m3/s-m2}
  0.002359737216,                         !- Flow Rate per Person {m3/s-person}
  ,                                       !- Air Changes per Hour {1/hr}
  ,                                       !- Ventilation Type
  ,                                       !- Fan Pressure Rise {Pa}
  ,                                       !- Fan Total Efficiency
  ,                                       !- Constant Term Coefficient
  ,                                       !- Temperature Term Coefficient
  ,                                       !- Velocity Term Coefficient
  ;                                       !- Velocity Squared Term Coefficient

ZoneVentilation:DesignFlowRate,
  100 room 1 Ventilation per Floor Area,  !- Name
  100 room 1,                             !- Zone or ZoneList or Space or SpaceList Name
  Always On Discrete,                     !- Schedule Name
  Flow/Area,                              !- Design Flow Rate Calculation Method
  ,                                       !- Design Flow Rate {m3/s}
  0.0003048,                              !- Flow Rate per Floor Area {m3/s-m2}
  ,                                       !- Flow Rate per Person {m3/s-person}
  ,                                       !- Air Changes per Hour {1/hr}
  ,                                       !- Ventilation Type
  ,                                       !- Fan Pressure Rise {Pa}
  ,                                       !- Fan Total Efficiency
  ,                                       !- Constant Term Coefficient
  ,                                       !- Temperature Term Coefficient
  ,                                       !- Velocity Term Coefficient
  ;                                       !- Velocity Squared Term Coefficient

Zone,
  101 room 2,                             !- Name
  ,                                       !- Direction of Relative North {deg}
  0,                                      !- X Origin {m}
  0,                                      !- Y Origin {m}
  0,                                      !- Z Origin {m}
  ,                                       !- Type
  1,                                      !- Multiplier
  ,                                       !- Ceiling Height {m}
  449.1938455,                            !- Volume {m3}
  ,                                       !- Floor Area {m2}
  ,                                       !- Zone Inside Convection Algorithm
  ,                                       !- Zone Outside Convection Algorithm
  Yes;                                    !- Part of Total Floor Area

Space,
  sp-101room2,                            !- Name
  101 room 2,                             !- Zone Name
  ,                                       !- Ceiling Height {m}
  449.1938455,                            !- Volume {m3}
  ;                                       !- Floor Area {m2}

BuildingSurface:Detailed,
  su-b-101-e-f-7,                         !- Name
  Floor,                                  !- Surface Type
  su-b-101-e-f-7 Custom R-Value 5.0 Const, !- Construction Name
  101 room 2,                             !- Zone Name
  sp-101room2,                            !- Space Name
  Ground,                                 !- Outside Boundary Condition
  ,                                       !- Outside Boundary Condition Object
  NoSun,                                  !- Sun Exposure
  NoWind,                                 !- Wind Exposure
  ,                                       !- View Factor to Ground
  ,                                       !- Number of Vertices
  -2.9611591, -15.3446522, 0,             !- X,Y,Z Vertex 1 {m}
  -2.9611591, -0.0030522, 0,              !- X,Y,Z Vertex 2 {m}
  3.3380409, -0.0030522, 0,               !- X,Y,Z Vertex 3 {m}
  3.3380409, -15.3446522, 0;              !- X,Y,Z Vertex 4 {m}

BuildingSurface:Detailed,
  su-e-101-e-w-4,                         !- Name
  Wall,                                   !- Surface Type
  su-e-101-e-w-4 Custom R-Value 5.0 Const, !- Construction Name
  101 room 2,                             !- Zone Name
  sp-101room2,                            !- Space Name
  Outdoors,                               !- Outside Boundary Condition
  ,                                       !- Outside Boundary Condition Object
  SunExposed,                             !- Sun Exposure
  WindExposed,                            !- Wind Exposure
  ,                                       !- View Factor to Ground
  ,                                       !- Number of Vertices
  3.3380409, -15.3446522, 0,              !- X,Y,Z Vertex 1 {m}
  3.3380409, -0.0030522, 0,               !- X,Y,Z Vertex 2 {m}
  3.3380409, -0.0030522, 4.01955,         !- X,Y,Z Vertex 3 {m}
  3.3380409, -15.3446522, 4.01955;        !- X,Y,Z Vertex 4 {m}

FenestrationSurface:Detailed,
  op-1,                                   !- Name
  GlassDoor,                              !- Surface Type
  op-1 Custom R-Value 5.0 Const,          !- Construction Name
  su-e-101-e-w-4,                         !- Building Surface Name
  ,                                       !- Outside Boundary Condition Object
  ,                                       !- View Factor to Ground
  ,                                       !- Frame and Divider Name
  ,                                       !- Multiplier
  ,                                       !- Number of Vertices
  3.338041, -12.7786891757259, 0.00691292427405851, !- X,Y,Z Vertex 1 {m}
  3.338041, -11.7765154242741, 0.00691292427405851, !- X,Y,Z Vertex 2 {m}
  3.338041, -11.7765154242741, 2.12668707572594, !- X,Y,Z Vertex 3 {m}
  3.338041, -12.7786891757259, 2.12668707572594; !- X,Y,Z Vertex 4 {m}

FenestrationSurface:Detailed,
  op-5,                                   !- Name
  Window,                                 !- Surface Type
  op-5 Custom R-Value 5.0 Const,          !- Construction Name
  su-e-101-e-w-4,                         !- Building Surface Name
  ,                                       !- Outside Boundary Condition Object
  ,                                       !- View Factor to Ground
  ,                                       !- Frame and Divider Name
  ,                                       !- Multiplier
  ,                                       !- Number of Vertices
  3.338041, -4.67140101116216, 0.919650988837844, !- X,Y,Z Vertex 1 {m}
  3.338041, -3.76750298883784, 0.919650988837844, !- X,Y,Z Vertex 2 {m}
  3.338041, -3.76750298883784, 2.12834901116216, !- X,Y,Z Vertex 3 {m}
  3.338041, -4.67140101116216, 2.12834901116216; !- X,Y,Z Vertex 4 {m}

BuildingSurface:Detailed,
  su-n-101-100-i-w-15,                    !- Name
  Wall,                                   !- Surface Type
  su-n-101-100-i-w-15 Custom R-Value 5.0 Const, !- Construction Name
  101 room 2,                             !- Zone Name
  sp-101room2,                            !- Space Name
  Surface,                                !- Outside Boundary Condition
  su-n-101-100-i-w-15 Reversed,           !- Outside Boundary Condition Object
  NoSun,                                  !- Sun Exposure
  NoWind,                                 !- Wind Exposure
  ,                                       !- View Factor to Ground
  ,                                       !- Number of Vertices
  -2.9611591, -0.0030522, 0,              !- X,Y,Z Vertex 1 {m}
  -2.9611591, -0.0030522, 4.01955,        !- X,Y,Z Vertex 2 {m}
  0.1884409, -0.0030522, 6.38175,         !- X,Y,Z Vertex 3 {m}
  3.3380409, -0.0030522, 4.01955,         !- X,Y,Z Vertex 4 {m}
  3.3380409, -0.0030522, 0;               !- X,Y,Z Vertex 5 {m}

BuildingSurface:Detailed,
  su-s-101-e-w-3,                         !- Name
  Wall,                                   !- Surface Type
  su-s-101-e-w-3 Custom R-Value 5.0 Const, !- Construction Name
  101 room 2,                             !- Zone Name
  sp-101room2,                            !- Space Name
  Outdoors,                               !- Outside Boundary Condition
  ,                                       !- Outside Boundary Condition Object
  SunExposed,                             !- Sun Exposure
  WindExposed,                            !- Wind Exposure
  ,                                       !- View Factor to Ground
  ,                                       !- Number of Vertices
  -2.9611591, -15.3446522, 4.01955,       !- X,Y,Z Vertex 1 {m}
  -2.9611591, -15.3446522, 0,             !- X,Y,Z Vertex 2 {m}
  3.3380409, -15.3446522, 0,              !- X,Y,Z Vertex 3 {m}
  3.3380409, -15.3446522, 4.01955;        !- X,Y,Z Vertex 4 {m}

BuildingSurface:Detailed,
  su-t-101-e-r-10,                        !- Name
  Roof,                                   !- Surface Type
  su-t-101-e-r-10 Custom R-Value 5.0 Const, !- Construction Name
  101 room 2,                             !- Zone Name
  sp-101room2,                            !- Space Name
  Outdoors,                               !- Outside Boundary Condition
  ,                                       !- Outside Boundary Condition Object
  SunExposed,                             !- Sun Exposure
  WindExposed,                            !- Wind Exposure
  ,                                       !- View Factor to Ground
  ,                                       !- Number of Vertices
  0.1884409, -12.1950522, 6.38175,        !- X,Y,Z Vertex 1 {m}
  3.3380409, -15.3446522, 4.01955,        !- X,Y,Z Vertex 2 {m}
  3.3380409, -0.0030522, 4.01955,         !- X,Y,Z Vertex 3 {m}
  0.1884409, -0.0030522, 6.38175;         !- X,Y,Z Vertex 4 {m}

BuildingSurface:Detailed,
  su-t-101-e-r-12,                        !- Name
  Roof,                                   !- Surface Type
  su-t-101-e-r-12 Custom R-Value 5.0 Const, !- Construction Name
  101 room 2,                             !- Zone Name
  sp-101room2,                            !- Space Name
  Outdoors,                               !- Outside Boundary Condition
  ,                                       !- Outside Boundary Condition Object
  SunExposed,                             !- Sun Exposure
  WindExposed,                            !- Wind Exposure
  ,                                       !- View Factor to Ground
  ,                                       !- Number of Vertices
  -2.9611591, -15.3446522, 4.01955,       !- X,Y,Z Vertex 1 {m}
  3.3380409, -15.3446522, 4.01955,        !- X,Y,Z Vertex 2 {m}
  0.1884409, -12.1950522, 6.38175;        !- X,Y,Z Vertex 3 {m}

BuildingSurface:Detailed,
  su-t-101-e-r-13,                        !- Name
  Roof,                                   !- Surface Type
  su-t-101-e-r-13 Custom R-Value 5.0 Const, !- Construction Name
  101 room 2,                             !- Zone Name
  sp-101room2,                            !- Space Name
  Outdoors,                               !- Outside Boundary Condition
  ,                                       !- Outside Boundary Condition Object
  SunExposed,                             !- Sun Exposure
  WindExposed,                            !- Wind Exposure
  ,                                       !- View Factor to Ground
  ,                                       !- Number of Vertices
  -2.9611591, -15.3446522, 4.01955,       !- X,Y,Z Vertex 1 {m}
  0.1884409, -12.1950522, 6.38175,        !- X,Y,Z Vertex 2 {m}
  0.1884409, -0.0030522, 6.38175,         !- X,Y,Z Vertex 3 {m}
  -2.9611591, -0.0030522, 4.01955;        !- X,Y,Z Vertex 4 {m}

BuildingSurface:Detailed,
  su-w-101-e-w-1,                         !- Name
  Wall,                                   !- Surface Type
  su-w-101-e-w-1 Custom R-Value 5.0 Const, !- Construction Name
  101 room 2,                             !- Zone Name
  sp-101room2,                            !- Space Name
  Outdoors,                               !- Outside Boundary Condition
  ,                                       !- Outside Boundary Condition Object
  SunExposed,                             !- Sun Exposure
  WindExposed,                            !- Wind Exposure
  ,                                       !- View Factor to Ground
  ,                                       !- Number of Vertices
  -2.9611591, -15.3446522, 0,             !- X,Y,Z Vertex 1 {m}
  -2.9611591, -15.3446522, 4.01955,       !- X,Y,Z Vertex 2 {m}
  -2.9611591, -0.0030522, 4.01955,        !- X,Y,Z Vertex 3 {m}
  -2.9611591, -0.0030522, 0;              !- X,Y,Z Vertex 4 {m}

FenestrationSurface:Detailed,
  op-2,                                   !- Name
  GlassDoor,                              !- Surface Type
  op-2 Custom R-Value 5.0 Const,          !- Construction Name
  su-w-101-e-w-1,                         !- Building Surface Name
  ,                                       !- Outside Boundary Condition Object
  ,                                       !- View Factor to Ground
  ,                                       !- Frame and Divider Name
  ,                                       !- Multiplier
  ,                                       !- Number of Vertices
  -2.9611591, -12.7977391757259, 0.00691292427405851, !- X,Y,Z Vertex 1 {m}
  -2.9611591, -12.7977391757259, 2.12668707572594, !- X,Y,Z Vertex 2 {m}
  -2.9611591, -11.7955654242741, 2.12668707572594, !- X,Y,Z Vertex 3 {m}
  -2.9611591, -11.7955654242741, 0.00691292427405851; !- X,Y,Z Vertex 4 {m}

Lights,
  sp-101room2_lights,                     !- Name
  sp-101room2,                            !- Zone or ZoneList or Space or SpaceList Name
  Office Lighting - 6 AM to 11 PM,        !- Schedule Name
  Watts/Area,                             !- Design Level Calculation Method
  ,                                       !- Lighting Level {W}
  10.7639104,                             !- Watts per Floor Area {W/m2}
  ,                                       !- Watts per Person {W/person}
  ,                                       !- Return Air Fraction
  ,                                       !- Fraction Radiant
  ,                                       !- Fraction Visible
  1,                                      !- Fraction Replaceable
  General;                                !- End-Use Subcategory

People,
  sp-101room2 People,                     !- Name
  sp-101room2,                            !- Zone or ZoneList or Space or SpaceList Name
  sp-101room2 Number of People Sch,       !- Number of People Schedule Name
  People,                                 !- Number of People Calculation Method
  5,                                      !- Number of People
  ,                                       !- People per Floor Area {person/m2}
  ,                                       !- Floor Area per Person {m2/person}
  0.3,                                    !- Fraction Radiant
  ,                                       !- Sensible Heat Fraction
  sp-101room2 Activity Sch;               !- Activity Level Schedule Name

Schedule:Day:Interval,
  sp-101room2 Number of People Default,   !- Name
  Fractional,                             !- Schedule Type Limits Name
  No,                                     !- Interpolate to Timestep
  24:00,                                  !- Time 1 {hh:mm}
  1;                                      !- Value Until Time 1

Schedule:Week:Daily,
  sp-101room2 Number of People Sch Week Rule - Jan1-Dec31, !- Name
  sp-101room2 Number of People Default,   !- Sunday Schedule:Day Name
  sp-101room2 Number of People Default,   !- Monday Schedule:Day Name
  sp-101room2 Number of People Default,   !- Tuesday Schedule:Day Name
  sp-101room2 Number of People Default,   !- Wednesday Schedule:Day Name
  sp-101room2 Number of People Default,   !- Thursday Schedule:Day Name
  sp-101room2 Number of People Default,   !- Friday Schedule:Day Name
  sp-101room2 Number of People Default,   !- Saturday Schedule:Day Name
  sp-101room2 Number of People Default,   !- Holiday Schedule:Day Name
  sp-101room2 Number of People Default,   !- SummerDesignDay Schedule:Day Name
  sp-101room2 Number of People Default,   !- WinterDesignDay Schedule:Day Name
  sp-101room2 Number of People Default,   !- CustomDay1 Schedule:Day Name
  sp-101room2 Number of People Default;   !- CustomDay2 Schedule:Day Name

Schedule:Year,
  sp-101room2 Number of People Sch,       !- Name
  Fractional,                             !- Schedule Type Limits Name
  sp-101room2 Number of People Sch Week Rule - Jan1-Dec31, !- Schedule:Week Name 1
  1,                                      !- Start Month 1
  1,                                      !- Start Day 1
  12,                                     !- End Month 1
  31;                                     !- End Day 1

Schedule:Day:Interval,
  sp-101room2 Activity Default,           !- Name
  ActivityLevel,                          !- Schedule Type Limits Name
  No,                                     !- Interpolate to Timestep
  24:00,                                  !- Time 1 {hh:mm}
  120;                                    !- Value Until Time 1

Schedule:Week:Daily,
  sp-101room2 Activity Sch Week Rule - Jan1-Dec31, !- Name
  sp-101room2 Activity Default,           !- Sunday Schedule:Day Name
  sp-101room2 Activity Default,           !- Monday Schedule:Day Name
  sp-101room2 Activity Default,           !- Tuesday Schedule:Day Name
  sp-101room2 Activity Default,           !- Wednesday Schedule:Day Name
  sp-101room2 Activity Default,           !- Thursday Schedule:Day Name
  sp-101room2 Activity Default,           !- Friday Schedule:Day Name
  sp-101room2 Activity Default,           !- Saturday Schedule:Day Name
  sp-101room2 Activity Default,           !- Holiday Schedule:Day Name
  sp-101room2 Activity Default,           !- SummerDesignDay Schedule:Day Name
  sp-101room2 Activity Default,           !- WinterDesignDay Schedule:Day Name
  sp-101room2 Activity Default,           !- CustomDay1 Schedule:Day Name
  sp-101room2 Activity Default;           !- CustomDay2 Schedule:Day Name

Schedule:Year,
  sp-101room2 Activity Sch,               !- Name
  ActivityLevel,                          !- Schedule Type Limits Name
  sp-101room2 Activity Sch Week Rule - Jan1-Dec31, !- Schedule:Week Name 1
  1,                                      !- Start Month 1
  1,                                      !- Start Day 1
  12,                                     !- End Month 1
  31;                                     !- End Day 1

ElectricEquipment,
  sp-101room2_elec_equip,                 !- Name
  sp-101room2,                            !- Zone or ZoneList or Space or SpaceList Name
  Office Lighting - 6 AM to 11 PM,        !- Schedule Name
  Watts/Area,                             !- Design Level Calculation Method
  ,                                       !- Design Level {W}
  13.9930835,                             !- Watts per Floor Area {W/m2}
  ,                                       !- Watts per Person {W/person}
  ,                                       !- Fraction Latent
  ,                                       !- Fraction Radiant
  ,                                       !- Fraction Lost
  General;                                !- End-Use Subcategory

ZoneInfiltration:DesignFlowRate,
  sp-101room2 Infiltration,               !- Name
  sp-101room2,                            !- Zone or ZoneList or Space or SpaceList Name
  infil_bldg,                             !- Schedule Name
  AirChanges/Hour,                        !- Design Flow Rate Calculation Method
  ,                                       !- Design Flow Rate {m3/s}
  ,                                       !- Flow Rate per Floor Area {m3/s-m2}
  ,                                       !- Flow Rate per Exterior Surface Area {m3/s-m2}
  0.5,                                    !- Air Changes per Hour {1/hr}
  1,                                      !- Constant Term Coefficient
  0,                                      !- Temperature Term Coefficient
  0,                                      !- Velocity Term Coefficient
  0;                                      !- Velocity Squared Term Coefficient

ZoneControl:Thermostat,
  101 room 2 Thermostat,                  !- Name
  101 room 2,                             !- Zone or ZoneList Name
  101 room 2 Thermostat Schedule,         !- Control Type Schedule Name
  ThermostatSetpoint:DualSetpoint,        !- Control 1 Object Type
  Thermostat Setpoint Dual Setpoint 2,    !- Control 1 Name
  ,                                       !- Control 2 Object Type
  ,                                       !- Control 2 Name
  ,                                       !- Control 3 Object Type
  ,                                       !- Control 3 Name
  ,                                       !- Control 4 Object Type
  ,                                       !- Control 4 Name
  0;                                      !- Temperature Difference Between Cutout And Setpoint {deltaC}

Schedule:Compact,
  101 room 2 Thermostat Schedule,         !- Name
  101 room 2 Thermostat Schedule Type Limits, !- Schedule Type Limits Name
  Through: 12/31,                         !- Field 1
  For: AllDays,                           !- Field 2
  Until: 24:00,                           !- Field 3
  4;                                      !- Field 4

ScheduleTypeLimits,
  101 room 2 Thermostat Schedule Type Limits, !- Name
  0,                                      !- Lower Limit Value {BasedOnField A3}
  4,                                      !- Upper Limit Value {BasedOnField A3}
  DISCRETE;                               !- Numeric Type

ThermostatSetpoint:DualSetpoint,
  Thermostat Setpoint Dual Setpoint 2,    !- Name
  sp-101room2 Heating Sch,                !- Heating Setpoint Temperature Schedule Name
  sp-101room2 Cooling Sch;                !- Cooling Setpoint Temperature Schedule Name

Schedule:Day:Interval,
  sp-101room2 Heating Default,            !- Name
  Temperature,                            !- Schedule Type Limits Name
  No,                                     !- Interpolate to Timestep
  24:00,                                  !- Time 1 {hh:mm}
  21.1111111111111;                       !- Value Until Time 1

Schedule:Week:Daily,
  sp-101room2 Heating Sch Week Rule - Jan1-Dec31, !- Name
  sp-101room2 Heating Default,            !- Sunday Schedule:Day Name
  sp-101room2 Heating Default,            !- Monday Schedule:Day Name
  sp-101room2 Heating Default,            !- Tuesday Schedule:Day Name
  sp-101room2 Heating Default,            !- Wednesday Schedule:Day Name
  sp-101room2 Heating Default,            !- Thursday Schedule:Day Name
  sp-101room2 Heating Default,            !- Friday Schedule:Day Name
  sp-101room2 Heating Default,            !- Saturday Schedule:Day Name
  sp-101room2 Heating Default,            !- Holiday Schedule:Day Name
  sp-101room2 Heating Default,            !- SummerDesignDay Schedule:Day Name
  sp-101room2 Heating Default,            !- WinterDesignDay Schedule:Day Name
  sp-101room2 Heating Default,            !- CustomDay1 Schedule:Day Name
  sp-101room2 Heating Default;            !- CustomDay2 Schedule:Day Name

Schedule:Year,
  sp-101room2 Heating Sch,                !- Name
  Temperature,                            !- Schedule Type Limits Name
  sp-101room2 Heating Sch Week Rule - Jan1-Dec31, !- Schedule:Week Name 1
  1,                                      !- Start Month 1
  1,                                      !- Start Day 1
  12,                                     !- End Month 1
  31;                                     !- End Day 1

Schedule:Day:Interval,
  sp-101room2 Cooling Default,            !- Name
  Temperature,                            !- Schedule Type Limits Name
  No,                                     !- Interpolate to Timestep
  24:00,                                  !- Time 1 {hh:mm}
  21.1111111111111;                       !- Value Until Time 1

Schedule:Week:Daily,
  sp-101room2 Cooling Sch Week Rule - Jan1-Dec31, !- Name
  sp-101room2 Cooling Default,            !- Sunday Schedule:Day Name
  sp-101room2 Cooling Default,            !- Monday Schedule:Day Name
  sp-101room2 Cooling Default,            !- Tuesday Schedule:Day Name
  sp-101room2 Cooling Default,            !- Wednesday Schedule:Day Name
  sp-101room2 Cooling Default,            !- Thursday Schedule:Day Name
  sp-101room2 Cooling Default,            !- Friday Schedule:Day Name
  sp-101room2 Cooling Default,            !- Saturday Schedule:Day Name
  sp-101room2 Cooling Default,            !- Holiday Schedule:Day Name
  sp-101room2 Cooling Default,            !- SummerDesignDay Schedule:Day Name
  sp-101room2 Cooling Default,            !- WinterDesignDay Schedule:Day Name
  sp-101room2 Cooling Default,            !- CustomDay1 Schedule:Day Name
  sp-101room2 Cooling Default;            !- CustomDay2 Schedule:Day Name

Schedule:Year,
  sp-101room2 Cooling Sch,                !- Name
  Temperature,                            !- Schedule Type Limits Name
  sp-101room2 Cooling Sch Week Rule - Jan1-Dec31, !- Schedule:Week Name 1
  1,                                      !- Start Month 1
  1,                                      !- Start Day 1
  12,                                     !- End Month 1
  31;                                     !- End Day 1

ZoneControl:Humidistat,
  Zone Control Humidistat 2,              !- Name
  101 room 2,                             !- Zone Name
  Dehumidifying Setpoint Schedule;        !- Humidifying Relative Humidity Setpoint Schedule Name

HVACTemplate:Zone:IdealLoadsAirSystem,
  101 room 2,                             !- Zone Name
  ,                                       !- Template Thermostat Name
  ,                                       !- System Availability Schedule Name
  ,                                       !- Maximum Heating Supply Air Temperature {C}
  ,                                       !- Minimum Cooling Supply Air Temperature {C}
  ,                                       !- Maximum Heating Supply Air Humidity Ratio {kgWater/kgDryAir}
  ,                                       !- Minimum Cooling Supply Air Humidity Ratio {kgWater/kgDryAir}
  ,                                       !- Heating Limit
  ,                                       !- Maximum Heating Air Flow Rate {m3/s}
  ,                                       !- Maximum Sensible Heating Capacity {W}
  ,                                       !- Cooling Limit
  ,                                       !- Maximum Cooling Air Flow Rate {m3/s}
  ,                                       !- Maximum Total Cooling Capacity {W}
  ,                                       !- Heating Availability Schedule Name
  ,                                       !- Cooling Availability Schedule Name
  ,                                       !- Dehumidification Control Type
  ,                                       !- Cooling Sensible Heat Ratio {dimensionless}
  ,                                       !- Dehumidification Setpoint {percent}
  ,                                       !- Humidification Control Type
  ,                                       !- Humidification Setpoint {percent}
  ,                                       !- Outdoor Air Method
  ,                                       !- Outdoor Air Flow Rate per Person {m3/s}
  ,                                       !- Outdoor Air Flow Rate per Zone Floor Area {m3/s-m2}
  ,                                       !- Outdoor Air Flow Rate per Zone {m3/s}
  ,                                       !- Design Specification Outdoor Air Object Name
  ;                                       !- Demand Controlled Ventilation Type

Sizing:Zone,
  101 room 2,                             !- Zone or ZoneList Name
  SupplyAirTemperature,                   !- Zone Cooling Design Supply Air Temperature Input Method
  14,                                     !- Zone Cooling Design Supply Air Temperature {C}
  11.11,                                  !- Zone Cooling Design Supply Air Temperature Difference {deltaC}
  SupplyAirTemperature,                   !- Zone Heating Design Supply Air Temperature Input Method
  40,                                     !- Zone Heating Design Supply Air Temperature {C}
  11.11,                                  !- Zone Heating Design Supply Air Temperature Difference {deltaC}
  0.0085,                                 !- Zone Cooling Design Supply Air Humidity Ratio {kgWater/kgDryAir}
  0.005,                                  !- Zone Heating Design Supply Air Humidity Ratio {kgWater/kgDryAir}
  101 room 2 DSOA Space List,             !- Design Specification Outdoor Air Object Name
  ,                                       !- Zone Heating Sizing Factor
  ,                                       !- Zone Cooling Sizing Factor
  DesignDay,                              !- Cooling Design Air Flow Method
  0,                                      !- Cooling Design Air Flow Rate {m3/s}
  0.000762,                               !- Cooling Minimum Air Flow per Zone Floor Area {m3/s-m2}
  0,                                      !- Cooling Minimum Air Flow {m3/s}
  0,                                      !- Cooling Minimum Air Flow Fraction
  DesignDay,                              !- Heating Design Air Flow Method
  0,                                      !- Heating Design Air Flow Rate {m3/s}
  0.002032,                               !- Heating Maximum Air Flow per Zone Floor Area {m3/s-m2}
  0.1415762,                              !- Heating Maximum Air Flow {m3/s}
  0.3,                                    !- Heating Maximum Air Flow Fraction
  ,                                       !- Design Specification Zone Air Distribution Object Name
  No,                                     !- Account for Dedicated Outdoor Air System
  ,                                       !- Dedicated Outdoor Air System Control Strategy
  ,                                       !- Dedicated Outdoor Air Low Setpoint Temperature for Design {C}
  ,                                       !- Dedicated Outdoor Air High Setpoint Temperature for Design {C}
  Sensible Load Only No Latent Load,      !- Zone Load Sizing Method
  HumidityRatioDifference,                !- Zone Latent Cooling Design Supply Air Humidity Ratio Input Method
  ,                                       !- Zone Dehumidification Design Supply Air Humidity Ratio {kgWater/kgDryAir}
  0.005,                                  !- Zone Cooling Design Supply Air Humidity Ratio Difference {kgWater/kgDryAir}
  HumidityRatioDifference,                !- Zone Latent Heating Design Supply Air Humidity Ratio Input Method
  ,                                       !- Zone Humidification Design Supply Air Humidity Ratio {kgWater/kgDryAir}
  0.005;                                  !- Zone Humidification Design Supply Air Humidity Ratio Difference {kgWater/kgDryAir}

DesignSpecification:OutdoorAir,
  sp-101room2_ventilation,                !- Name
  Sum,                                    !- Outdoor Air Method
  0.002359737216,                         !- Outdoor Air Flow per Person {m3/s-person}
  0.0003048,                              !- Outdoor Air Flow per Zone Floor Area {m3/s-m2}
  0,                                      !- Outdoor Air Flow per Zone {m3/s}
  0;                                      !- Outdoor Air Flow Air Changes per Hour {1/hr}

DesignSpecification:OutdoorAir:SpaceList,
  101 room 2 DSOA Space List,             !- Name
  sp-101room2,                            !- Space Name 1
  sp-101room2_ventilation;                !- Space Design Specification Outdoor Air Object Name 1

ZoneVentilation:DesignFlowRate,
  101 room 2 Ventilation per Person,      !- Name
  101 room 2,                             !- Zone or ZoneList or Space or SpaceList Name
  sp-101room2 Number of People Sch,       !- Schedule Name
  Flow/Person,                            !- Design Flow Rate Calculation Method
  ,                                       !- Design Flow Rate {m3/s}
  ,                                       !- Flow Rate per Floor Area {m3/s-m2}
  0.002359737216,                         !- Flow Rate per Person {m3/s-person}
  ,                                       !- Air Changes per Hour {1/hr}
  ,                                       !- Ventilation Type
  ,                                       !- Fan Pressure Rise {Pa}
  ,                                       !- Fan Total Efficiency
  ,                                       !- Constant Term Coefficient
  ,                                       !- Temperature Term Coefficient
  ,                                       !- Velocity Term Coefficient
  ;                                       !- Velocity Squared Term Coefficient

ZoneVentilation:DesignFlowRate,
  101 room 2 Ventilation per Floor Area,  !- Name
  101 room 2,                             !- Zone or ZoneList or Space or SpaceList Name
  Always On Discrete,                     !- Schedule Name
  Flow/Area,                              !- Design Flow Rate Calculation Method
  ,                                       !- Design Flow Rate {m3/s}
  0.0003048,                              !- Flow Rate per Floor Area {m3/s-m2}
  ,                                       !- Flow Rate per Person {m3/s-person}
  ,                                       !- Air Changes per Hour {1/hr}
  ,                                       !- Ventilation Type
  ,                                       !- Fan Pressure Rise {Pa}
  ,                                       !- Fan Total Efficiency
  ,                                       !- Constant Term Coefficient
  ,                                       !- Temperature Term Coefficient
  ,                                       !- Velocity Term Coefficient
  ;                                       !- Velocity Squared Term Coefficient

SimulationControl,
  Yes,                                    !- Do Zone Sizing Calculation
  Yes,                                    !- Do System Sizing Calculation
  Yes,                                    !- Do Plant Sizing Calculation
  Yes,                                    !- Run Simulation for Sizing Periods
  Yes,                                    !- Run Simulation for Weather File Run Periods
  ,                                       !- Do HVAC Sizing Simulation for Sizing Periods
  ;                                       !- Maximum Number of HVAC Sizing Simulation Passes

ConvergenceLimits,
  1,                                      !- Minimum System Timestep {minutes}
  25;                                     !- Maximum HVAC Iterations

RunPeriod,
  Run Period 1,                           !- Name
  1,                                      !- Begin Month
  1,                                      !- Begin Day of Month
  1997,                                   !- Begin Year
  12,                                     !- End Month
  31,                                     !- End Day of Month
  1997,                                   !- End Year
  Wednesday,                              !- Day of Week for Start Day
  No,                                     !- Use Weather File Holidays and Special Days
  No,                                     !- Use Weather File Daylight Saving Period
  No,                                     !- Apply Weekend Holiday Rule
  Yes,                                    !- Use Weather File Rain Indicators
  Yes;                                    !- Use Weather File Snow Indicators

Sizing:Parameters,
  1,                                      !- Heating Sizing Factor
  1;                                      !- Cooling Sizing Factor

GlobalGeometryRules,
  UpperLeftCorner,                        !- Starting Vertex Position
  Counterclockwise,                       !- Vertex Entry Direction
  Relative,                               !- Coordinate System
  Relative,                               !- Daylighting Reference Point Coordinate System
  Relative;                               !- Rectangular Surface Coordinate System

Material,
  mat-112inwood,                          !- Name
  MediumRough,                            !- Roughness
  0.0376,                                 !- Thickness {m}
  0.15,                                   !- Conductivity {W/m-K}
  608,                                    !- Density {kg/m3}
  1630,                                   !- Specific Heat {J/kg-K}
  0.9,                                    !- Thermal Absorptance
  0.7,                                    !- Solar Absorptance
  0.7;                                    !- Visible Absorptance

Material,
  mat-blt-uproof38inbr01,                 !- Name
  MediumRough,                            !- Roughness
  0.00954,                                !- Thickness {m}
  0.162516,                               !- Conductivity {W/m-K}
  1121.4,                                 !- Density {kg/m3}
  1465.38,                                !- Specific Heat {J/kg-K}
  0.3,                                    !- Thermal Absorptance
  0.7,                                    !- Solar Absorptance
  0.7;                                    !- Visible Absorptance

Material,
  mat-concheavyweight140lb8incc05,        !- Name
  MediumRough,                            !- Roughness
  0.2032,                                 !- Thickness {m}
  1.311205,                               !- Conductivity {W/m-K}
  2242.8,                                 !- Density {kg/m3}
  837.36,                                 !- Specific Heat {J/kg-K}
  0.9,                                    !- Thermal Absorptance
  0.7,                                    !- Solar Absorptance
  0.7;                                    !- Visible Absorptance

Material,
  mat-gypbd58ingp02,                      !- Name
  MediumRough,                            !- Roughness
  0.015879,                               !- Thickness {m}
  0.160266,                               !- Conductivity {W/m-K}
  801,                                    !- Density {kg/m3}
  837.36,                                 !- Specific Heat {J/kg-K}
  0.7,                                    !- Thermal Absorptance
  0.7,                                    !- Solar Absorptance
  0.7;                                    !- Visible Absorptance

Material,
  mat-minbd3inr-104in24,                  !- Name
  MediumRough,                            !- Roughness
  0.076196,                               !- Thickness {m}
  0.041538,                               !- Conductivity {W/m-K}
  240.3,                                  !- Density {kg/m3}
  711.756,                                !- Specific Heat {J/kg-K}
  0.9,                                    !- Thermal Absorptance
  0.7,                                    !- Solar Absorptance
  0.7;                                    !- Visible Absorptance

Material,
  mat-minwoolbattr13w2x4frame,            !- Name
  MediumRough,                            !- Roughness
  0.1016,                                 !- Thickness {m}
  0.06227,                                !- Conductivity {W/m-K}
  129.9,                                  !- Density {kg/m3}
  962.3,                                  !- Specific Heat {J/kg-K}
  0.9,                                    !- Thermal Absorptance
  0.7,                                    !- Solar Absorptance
  0.7;                                    !- Visible Absorptance

Material,
  mat-soil8in,                            !- Name
  MediumRough,                            !- Roughness
  0.204206,                               !- Thickness {m}
  1.730735,                               !- Conductivity {W/m-K}
  1842.3,                                 !- Density {kg/m3}
  837.36,                                 !- Specific Heat {J/kg-K}
  0.9,                                    !- Thermal Absorptance
  0.7,                                    !- Solar Absorptance
  0.7;                                    !- Visible Absorptance

Material,
  mat-woodsft34inwd01,                    !- Name
  MediumRough,                            !- Roughness
  0.019049,                               !- Thickness {m}
  0.11544,                                !- Conductivity {W/m-K}
  512.64,                                 !- Density {kg/m3}
  1381.644,                               !- Specific Heat {J/kg-K}
  0.9,                                    !- Thermal Absorptance
  0.7,                                    !- Solar Absorptance
  0.7;                                    !- Visible Absorptance

Material,
  mat-woodshinglews01,                    !- Name
  MediumRough,                            !- Roughness
  0.017769,                               !- Thickness {m}
  0.11544,                                !- Conductivity {W/m-K}
  512.64,                                 !- Density {kg/m3}
  1256.04,                                !- Specific Heat {J/kg-K}
  0.7,                                    !- Thermal Absorptance
  0.7,                                    !- Solar Absorptance
  0.7;                                    !- Visible Absorptance

Material:NoMass,
  mat-airspace,                           !- Name
  Smooth,                                 !- Roughness
  0.10919,                                !- Thermal Resistance {m2-K/W}
  0.9,                                    !- Thermal Absorptance
  0.7,                                    !- Solar Absorptance
  0.7;                                    !- Visible Absorptance

Material:NoMass,
  mat-bldgpaperfeltbp01,                  !- Name
  Smooth,                                 !- Roughness
  0.01057,                                !- Thermal Resistance {m2-K/W}
  0.9,                                    !- Thermal Absorptance
  0.7,                                    !- Solar Absorptance
  0.7;                                    !- Visible Absorptance

Material:NoMass,
  mat-carpetfiberpadcp01,                 !- Name
  Smooth,                                 !- Roughness
  0.36631,                                !- Thermal Resistance {m2-K/W}
  0.9,                                    !- Thermal Absorptance
  0.7,                                    !- Solar Absorptance
  0.7;                                    !- Visible Absorptance

Material:NoMass,
  mat-ugsurfacefictitiousinsulation,      !- Name
  Smooth,                                 !- Roughness
  5.28331,                                !- Thermal Resistance {m2-K/W}
  0.9,                                    !- Thermal Absorptance
  0.7,                                    !- Solar Absorptance
  0.7;                                    !- Visible Absorptance

Material:NoMass,
  su-b-100-e-f-8 Custom R-Value 5.0 Mat,  !- Name
  Smooth,                                 !- Roughness
  0.88055,                                !- Thermal Resistance {m2-K/W}
  0.9,                                    !- Thermal Absorptance
  0.7,                                    !- Solar Absorptance
  0.7;                                    !- Visible Absorptance

Material:NoMass,
  su-b-101-e-f-7 Custom R-Value 5.0 Mat,  !- Name
  Smooth,                                 !- Roughness
  0.88055,                                !- Thermal Resistance {m2-K/W}
  0.9,                                    !- Thermal Absorptance
  0.7,                                    !- Solar Absorptance
  0.7;                                    !- Visible Absorptance

Material:NoMass,
  su-e-100-e-w-5 Custom R-Value 5.0 Mat,  !- Name
  Smooth,                                 !- Roughness
  0.88055,                                !- Thermal Resistance {m2-K/W}
  0.9,                                    !- Thermal Absorptance
  0.7,                                    !- Solar Absorptance
  0.7;                                    !- Visible Absorptance

Material:NoMass,
  su-e-101-e-w-4 Custom R-Value 5.0 Mat,  !- Name
  Smooth,                                 !- Roughness
  0.88055,                                !- Thermal Resistance {m2-K/W}
  0.9,                                    !- Thermal Absorptance
  0.7,                                    !- Solar Absorptance
  0.7;                                    !- Visible Absorptance

Material:NoMass,
  su-n-100-e-w-6 Custom R-Value 5.0 Mat,  !- Name
  Smooth,                                 !- Roughness
  0.88055,                                !- Thermal Resistance {m2-K/W}
  0.9,                                    !- Thermal Absorptance
  0.7,                                    !- Solar Absorptance
  0.7;                                    !- Visible Absorptance

Material:NoMass,
  su-n-101-100-i-w-15 Custom R-Value 5.0 Mat, !- Name
  Smooth,                                 !- Roughness
  0.88055,                                !- Thermal Resistance {m2-K/W}
  0.9,                                    !- Thermal Absorptance
  0.7,                                    !- Solar Absorptance
  0.7;                                    !- Visible Absorptance

Material:NoMass,
  su-n-101-100-i-w-15 Reversed Custom R-Value 5.0 Mat, !- Name
  Smooth,                                 !- Roughness
  0.88055,                                !- Thermal Resistance {m2-K/W}
  0.9,                                    !- Thermal Absorptance
  0.7,                                    !- Solar Absorptance
  0.7;                                    !- Visible Absorptance

Material:NoMass,
  su-s-101-e-w-3 Custom R-Value 5.0 Mat,  !- Name
  Smooth,                                 !- Roughness
  0.88055,                                !- Thermal Resistance {m2-K/W}
  0.9,                                    !- Thermal Absorptance
  0.7,                                    !- Solar Absorptance
  0.7;                                    !- Visible Absorptance

Material:NoMass,
  su-t-100-e-r-11 Custom R-Value 5.0 Mat, !- Name
  Smooth,                                 !- Roughness
  0.88055,                                !- Thermal Resistance {m2-K/W}
  0.9,                                    !- Thermal Absorptance
  0.7,                                    !- Solar Absorptance
  0.7;                                    !- Visible Absorptance

Material:NoMass,
  su-t-100-e-r-14 Custom R-Value 5.0 Mat, !- Name
  Smooth,                                 !- Roughness
  0.88055,                                !- Thermal Resistance {m2-K/W}
  0.9,                                    !- Thermal Absorptance
  0.7,                                    !- Solar Absorptance
  0.7;                                    !- Visible Absorptance

Material:NoMass,
  su-t-100-e-r-9 Custom R-Value 5.0 Mat,  !- Name
  Smooth,                                 !- Roughness
  0.88055,                                !- Thermal Resistance {m2-K/W}
  0.9,                                    !- Thermal Absorptance
  0.7,                                    !- Solar Absorptance
  0.7;                                    !- Visible Absorptance

Material:NoMass,
  su-t-101-e-r-10 Custom R-Value 5.0 Mat, !- Name
  Smooth,                                 !- Roughness
  0.88055,                                !- Thermal Resistance {m2-K/W}
  0.9,                                    !- Thermal Absorptance
  0.7,                                    !- Solar Absorptance
  0.7;                                    !- Visible Absorptance

Material:NoMass,
  su-t-101-e-r-12 Custom R-Value 5.0 Mat, !- Name
  Smooth,                                 !- Roughness
  0.88055,                                !- Thermal Resistance {m2-K/W}
  0.9,                                    !- Thermal Absorptance
  0.7,                                    !- Solar Absorptance
  0.7;                                    !- Visible Absorptance

Material:NoMass,
  su-t-101-e-r-13 Custom R-Value 5.0 Mat, !- Name
  Smooth,                                 !- Roughness
  0.88055,                                !- Thermal Resistance {m2-K/W}
  0.9,                                    !- Thermal Absorptance
  0.7,                                    !- Solar Absorptance
  0.7;                                    !- Visible Absorptance

Material:NoMass,
  su-w-100-e-w-2 Custom R-Value 5.0 Mat,  !- Name
  Smooth,                                 !- Roughness
  0.88055,                                !- Thermal Resistance {m2-K/W}
  0.9,                                    !- Thermal Absorptance
  0.7,                                    !- Solar Absorptance
  0.7;                                    !- Visible Absorptance

Material:NoMass,
  su-w-101-e-w-1 Custom R-Value 5.0 Mat,  !- Name
  Smooth,                                 !- Roughness
  0.88055,                                !- Thermal Resistance {m2-K/W}
  0.9,                                    !- Thermal Absorptance
  0.7,                                    !- Solar Absorptance
  0.7;                                    !- Visible Absorptance

WindowMaterial:SimpleGlazingSystem,
  op-1 Custom U-Factor 0.2 Mat,           !- Name
  1.1356538527057,                        !- U-Factor {W/m2-K}
  0.4;                                    !- Solar Heat Gain Coefficient

WindowMaterial:SimpleGlazingSystem,
  op-2 Custom U-Factor 0.2 Mat,           !- Name
  1.1356538527057,                        !- U-Factor {W/m2-K}
  0.4;                                    !- Solar Heat Gain Coefficient

WindowMaterial:SimpleGlazingSystem,
  op-3 Custom U-Factor 0.2 Mat,           !- Name
  1.1356538527057,                        !- U-Factor {W/m2-K}
  0.4;                                    !- Solar Heat Gain Coefficient

WindowMaterial:SimpleGlazingSystem,
  op-4 Custom U-Factor 0.2 Mat,           !- Name
  1.1356538527057,                        !- U-Factor {W/m2-K}
  0.4;                                    !- Solar Heat Gain Coefficient

WindowMaterial:SimpleGlazingSystem,
  op-5 Custom U-Factor 0.2 Mat,           !- Name
  1.1356538527057,                        !- U-Factor {W/m2-K}
  0.4;                                    !- Solar Heat Gain Coefficient

WindowMaterial:SimpleGlazingSystem,
  Window Material Simple Glazing System 1, !- Name
  3.7642,                                 !- U-Factor {W/m2-K}
  0.78,                                   !- Solar Heat Gain Coefficient
  0.9;                                    !- Visible Transmittance

WindowMaterial:SimpleGlazingSystem,
  {a9b23e9e-d68a-4604-a3c0-4315b0a04f27}, !- Name
  2.8566,                                 !- U-Factor {W/m2-K}
  0.76,                                   !- Solar Heat Gain Coefficient
  0.81;                                   !- Visible Transmittance

Construction,
  con-r-0metalframewall,                  !- Name
  mat-gypbd58ingp02,                      !- Layer 1
  mat-airspace,                           !- Layer 2
  mat-gypbd58ingp02;                      !- Layer 3

Construction,
  con-r-13woodframewall,                  !- Name
  mat-woodshinglews01,                    !- Layer 1
  mat-bldgpaperfeltbp01,                  !- Layer 2
  mat-woodsft34inwd01,                    !- Layer 3
  mat-minwoolbattr13w2x4frame,            !- Layer 4
  mat-gypbd58ingp02;                      !- Layer 5

Construction,
  con-r-20overroofdeck-coolroof,          !- Name
  mat-blt-uproof38inbr01,                 !- Layer 1
  mat-bldgpaperfeltbp01,                  !- Layer 2
  mat-minbd3inr-104in24,                  !- Layer 3
  mat-minbd3inr-104in24,                  !- Layer 4
  mat-woodsft34inwd01;                    !- Layer 5

Construction,
  con-slabedgeuninsulated,                !- Name
  mat-ugsurfacefictitiousinsulation,      !- Layer 1
  mat-soil8in,                            !- Layer 2
  mat-concheavyweight140lb8incc05,        !- Layer 3
  mat-carpetfiberpadcp01;                 !- Layer 4

Construction,
  con-wooden,                             !- Name
  mat-112inwood;                          !- Layer 1

Construction,
  Construction 1,                         !- Name
  Window Material Simple Glazing System 1; !- Layer 1

Construction,
  op-1 Custom R-Value 5.0 Const,          !- Name
  op-1 Custom U-Factor 0.2 Mat;           !- Layer 1

Construction,
  op-2 Custom R-Value 5.0 Const,          !- Name
  op-2 Custom U-Factor 0.2 Mat;           !- Layer 1

Construction,
  op-3 Custom R-Value 5.0 Const,          !- Name
  op-3 Custom U-Factor 0.2 Mat;           !- Layer 1

Construction,
  op-4 Custom R-Value 5.0 Const,          !- Name
  op-4 Custom U-Factor 0.2 Mat;           !- Layer 1

Construction,
  op-5 Custom R-Value 5.0 Const,          !- Name
  op-5 Custom U-Factor 0.2 Mat;           !- Layer 1

Construction,
  su-b-100-e-f-8 Custom R-Value 5.0 Const, !- Name
  su-b-100-e-f-8 Custom R-Value 5.0 Mat,  !- Layer 1
  mat-soil8in,                            !- Layer 2
  mat-concheavyweight140lb8incc05,        !- Layer 3
  mat-carpetfiberpadcp01;                 !- Layer 4

Construction,
  su-b-101-e-f-7 Custom R-Value 5.0 Const, !- Name
  su-b-101-e-f-7 Custom R-Value 5.0 Mat,  !- Layer 1
  mat-soil8in,                            !- Layer 2
  mat-concheavyweight140lb8incc05,        !- Layer 3
  mat-carpetfiberpadcp01;                 !- Layer 4

Construction,
  su-e-100-e-w-5 Custom R-Value 5.0 Const, !- Name
  su-e-100-e-w-5 Custom R-Value 5.0 Mat,  !- Layer 1
  mat-bldgpaperfeltbp01,                  !- Layer 2
  mat-woodsft34inwd01,                    !- Layer 3
  mat-minwoolbattr13w2x4frame,            !- Layer 4
  mat-gypbd58ingp02;                      !- Layer 5

Construction,
  su-e-101-e-w-4 Custom R-Value 5.0 Const, !- Name
  su-e-101-e-w-4 Custom R-Value 5.0 Mat,  !- Layer 1
  mat-bldgpaperfeltbp01,                  !- Layer 2
  mat-woodsft34inwd01,                    !- Layer 3
  mat-minwoolbattr13w2x4frame,            !- Layer 4
  mat-gypbd58ingp02;                      !- Layer 5

Construction,
  su-n-100-e-w-6 Custom R-Value 5.0 Const, !- Name
  su-n-100-e-w-6 Custom R-Value 5.0 Mat,  !- Layer 1
  mat-bldgpaperfeltbp01,                  !- Layer 2
  mat-woodsft34inwd01,                    !- Layer 3
  mat-minwoolbattr13w2x4frame,            !- Layer 4
  mat-gypbd58ingp02;                      !- Layer 5

Construction,
  su-n-101-100-i-w-15 Custom R-Value 5.0 Const, !- Name
  su-n-101-100-i-w-15 Custom R-Value 5.0 Mat, !- Layer 1
  mat-airspace,                           !- Layer 2
  mat-gypbd58ingp02;                      !- Layer 3

Construction,
  su-n-101-100-i-w-15 Reversed Custom R-Value 5.0 Const, !- Name
  su-n-101-100-i-w-15 Reversed Custom R-Value 5.0 Mat, !- Layer 1
  mat-airspace,                           !- Layer 2
  mat-gypbd58ingp02;                      !- Layer 3

Construction,
  su-s-101-e-w-3 Custom R-Value 5.0 Const, !- Name
  su-s-101-e-w-3 Custom R-Value 5.0 Mat,  !- Layer 1
  mat-bldgpaperfeltbp01,                  !- Layer 2
  mat-woodsft34inwd01,                    !- Layer 3
  mat-minwoolbattr13w2x4frame,            !- Layer 4
  mat-gypbd58ingp02;                      !- Layer 5

Construction,
  su-t-100-e-r-11 Custom R-Value 5.0 Const, !- Name
  su-t-100-e-r-11 Custom R-Value 5.0 Mat, !- Layer 1
  mat-bldgpaperfeltbp01,                  !- Layer 2
  mat-minbd3inr-104in24,                  !- Layer 3
  mat-minbd3inr-104in24,                  !- Layer 4
  mat-woodsft34inwd01;                    !- Layer 5

Construction,
  su-t-100-e-r-14 Custom R-Value 5.0 Const, !- Name
  su-t-100-e-r-14 Custom R-Value 5.0 Mat, !- Layer 1
  mat-bldgpaperfeltbp01,                  !- Layer 2
  mat-minbd3inr-104in24,                  !- Layer 3
  mat-minbd3inr-104in24,                  !- Layer 4
  mat-woodsft34inwd01;                    !- Layer 5

Construction,
  su-t-100-e-r-9 Custom R-Value 5.0 Const, !- Name
  su-t-100-e-r-9 Custom R-Value 5.0 Mat,  !- Layer 1
  mat-bldgpaperfeltbp01,                  !- Layer 2
  mat-minbd3inr-104in24,                  !- Layer 3
  mat-minbd3inr-104in24,                  !- Layer 4
  mat-woodsft34inwd01;                    !- Layer 5

Construction,
  su-t-101-e-r-10 Custom R-Value 5.0 Const, !- Name
  su-t-101-e-r-10 Custom R-Value 5.0 Mat, !- Layer 1
  mat-bldgpaperfeltbp01,                  !- Layer 2
  mat-minbd3inr-104in24,                  !- Layer 3
  mat-minbd3inr-104in24,                  !- Layer 4
  mat-woodsft34inwd01;                    !- Layer 5

Construction,
  su-t-101-e-r-12 Custom R-Value 5.0 Const, !- Name
  su-t-101-e-r-12 Custom R-Value 5.0 Mat, !- Layer 1
  mat-bldgpaperfeltbp01,                  !- Layer 2
  mat-minbd3inr-104in24,                  !- Layer 3
  mat-minbd3inr-104in24,                  !- Layer 4
  mat-woodsft34inwd01;                    !- Layer 5

Construction,
  su-t-101-e-r-13 Custom R-Value 5.0 Const, !- Name
  su-t-101-e-r-13 Custom R-Value 5.0 Mat, !- Layer 1
  mat-bldgpaperfeltbp01,                  !- Layer 2
  mat-minbd3inr-104in24,                  !- Layer 3
  mat-minbd3inr-104in24,                  !- Layer 4
  mat-woodsft34inwd01;                    !- Layer 5

Construction,
  su-w-100-e-w-2 Custom R-Value 5.0 Const, !- Name
  su-w-100-e-w-2 Custom R-Value 5.0 Mat,  !- Layer 1
  mat-bldgpaperfeltbp01,                  !- Layer 2
  mat-woodsft34inwd01,                    !- Layer 3
  mat-minwoolbattr13w2x4frame,            !- Layer 4
  mat-gypbd58ingp02;                      !- Layer 5

Construction,
  su-w-101-e-w-1 Custom R-Value 5.0 Const, !- Name
  su-w-101-e-w-1 Custom R-Value 5.0 Mat,  !- Layer 1
  mat-bldgpaperfeltbp01,                  !- Layer 2
  mat-woodsft34inwd01,                    !- Layer 3
  mat-minwoolbattr13w2x4frame,            !- Layer 4
  mat-gypbd58ingp02;                      !- Layer 5

Construction,
  win-1,                                  !- Name
  {a9b23e9e-d68a-4604-a3c0-4315b0a04f27}; !- Layer 1

Schedule:Constant,
  Always On Discrete,                     !- Name
  OnOff,                                  !- Schedule Type Limits Name
  1;                                      !- Hourly Value

Schedule:Constant,
  Always Off Discrete,                    !- Name
  OnOff 1,                                !- Schedule Type Limits Name
  0;                                      !- Hourly Value

Schedule:Constant,
  Always On Continuous,                   !- Name
  Fractional 1,                           !- Schedule Type Limits Name
  1;                                      !- Hourly Value

ScheduleTypeLimits,
  Fractional 1,                           !- Name
  0,                                      !- Lower Limit Value {BasedOnField A3}
  1,                                      !- Upper Limit Value {BasedOnField A3}
  Continuous;                             !- Numeric Type

ScheduleTypeLimits,
  OnOff,                                  !- Name
  0,                                      !- Lower Limit Value {BasedOnField A3}
  1,                                      !- Upper Limit Value {BasedOnField A3}
  Discrete,                               !- Numeric Type
  availability;                           !- Unit Type

ScheduleTypeLimits,
  OnOff 1,                                !- Name
  0,                                      !- Lower Limit Value {BasedOnField A3}
  1,                                      !- Upper Limit Value {BasedOnField A3}
  Discrete,                               !- Numeric Type
  availability;                           !- Unit Type

ScheduleTypeLimits,
  Temperature Schedule Type Limits,       !- Name
  ,                                       !- Lower Limit Value {BasedOnField A3}
  ,                                       !- Upper Limit Value {BasedOnField A3}
  Continuous,                             !- Numeric Type
  temperature;                            !- Unit Type

Schedule:Day:Interval,
  activity_131.8819816 Schedule Week Day, !- Name
  ActivityLevel,                          !- Schedule Type Limits Name
  No,                                     !- Interpolate to Timestep
  24:00,                                  !- Time 1 {hh:mm}
  131.8819816;                            !- Value Until Time 1

Schedule:Day:Interval,
  activity_131.8819816 Summer Design Day, !- Name
  ActivityLevel,                          !- Schedule Type Limits Name
  No,                                     !- Interpolate to Timestep
  24:00,                                  !- Time 1 {hh:mm}
  131.8819816;                            !- Value Until Time 1

Schedule:Day:Interval,
  activity_131.8819816 Winter Design Day, !- Name
  ActivityLevel,                          !- Schedule Type Limits Name
  No,                                     !- Interpolate to Timestep
  24:00,                                  !- Time 1 {hh:mm}
  0;                                      !- Value Until Time 1

Schedule:Day:Interval,
  Common Office Occupancy - 8 AM to 5 PM Summer Design Day, !- Name
  Fractional,                             !- Schedule Type Limits Name
  No,                                     !- Interpolate to Timestep
  24:00,                                  !- Time 1 {hh:mm}
  1;                                      !- Value Until Time 1

Schedule:Day:Interval,
  Common Office Occupancy - 8 AM to 5 PM Winter Design Day, !- Name
  Fractional,                             !- Schedule Type Limits Name
  No,                                     !- Interpolate to Timestep
  24:00,                                  !- Time 1 {hh:mm}
  0;                                      !- Value Until Time 1

Schedule:Day:Interval,
  Common Office Occupancy - 8 AM to 5 PM wshc-commonofficeoccupancy-8amto5pm, !- Name
  Fractional,                             !- Schedule Type Limits Name
  No,                                     !- Interpolate to Timestep
  07:00,                                  !- Time 1 {hh:mm}
  0,                                      !- Value Until Time 1
  08:00,                                  !- Time 2 {hh:mm}
  0.1,                                    !- Value Until Time 2
  09:00,                                  !- Time 3 {hh:mm}
  0.2,                                    !- Value Until Time 3
  11:00,                                  !- Time 4 {hh:mm}
  0.95,                                   !- Value Until Time 4
  13:00,                                  !- Time 5 {hh:mm}
  0.45,                                   !- Value Until Time 5
  18:00,                                  !- Time 6 {hh:mm}
  0.95,                                   !- Value Until Time 6
  19:00,                                  !- Time 7 {hh:mm}
  0.3,                                    !- Value Until Time 7
  22:00,                                  !- Time 8 {hh:mm}
  0.1,                                    !- Value Until Time 8
  24:00,                                  !- Time 9 {hh:mm}
  0;                                      !- Value Until Time 9

Schedule:Day:Interval,
  Cooling Setpoint Schedule Cooling Setpoint Default Day Schedule, !- Name
  Temperature Schedule Type Limits,       !- Schedule Type Limits Name
  No,                                     !- Interpolate to Timestep
  05:30,                                  !- Time 1 {hh:mm}
  26.6666666777778,                       !- Value Until Time 1
  22:00,                                  !- Time 2 {hh:mm}
  23.8888889,                             !- Value Until Time 2
  24:00,                                  !- Time 3 {hh:mm}
  26.6666666777778;                       !- Value Until Time 3

Schedule:Day:Interval,
  Cooling Setpoint Schedule Summer Design Day, !- Name
  Temperature Schedule Type Limits,       !- Schedule Type Limits Name
  No,                                     !- Interpolate to Timestep
  24:00,                                  !- Time 1 {hh:mm}
  23.8888889;                             !- Value Until Time 1

Schedule:Day:Interval,
  Cooling Setpoint Schedule Winter Design Day, !- Name
  Temperature Schedule Type Limits,       !- Schedule Type Limits Name
  No,                                     !- Interpolate to Timestep
  24:00,                                  !- Time 1 {hh:mm}
  23.8888889;                             !- Value Until Time 1

Schedule:Day:Interval,
  Heating Setpoint Schedule Heating Setpoint Default Day Schedule, !- Name
  Temperature Schedule Type Limits,       !- Schedule Type Limits Name
  No,                                     !- Interpolate to Timestep
  05:30,                                  !- Time 1 {hh:mm}
  18.3333333222222,                       !- Value Until Time 1
  22:00,                                  !- Time 2 {hh:mm}
  21.1111111,                             !- Value Until Time 2
  24:00,                                  !- Time 3 {hh:mm}
  18.3333333222222;                       !- Value Until Time 3

Schedule:Day:Interval,
  Heating Setpoint Schedule Summer Design Day, !- Name
  Temperature Schedule Type Limits,       !- Schedule Type Limits Name
  No,                                     !- Interpolate to Timestep
  24:00,                                  !- Time 1 {hh:mm}
  21.1111111;                             !- Value Until Time 1

Schedule:Day:Interval,
  Heating Setpoint Schedule Winter Design Day, !- Name
  Temperature Schedule Type Limits,       !- Schedule Type Limits Name
  No,                                     !- Interpolate to Timestep
  24:00,                                  !- Time 1 {hh:mm}
  21.1111111;                             !- Value Until Time 1

Schedule:Day:Interval,
  infil_bldg infil_bldg_default,          !- Name
  Fractional,                             !- Schedule Type Limits Name
  No,                                     !- Interpolate to Timestep
  24:00,                                  !- Time 1 {hh:mm}
  1;                                      !- Value Until Time 1

Schedule:Day:Interval,
  infil_bldg Summer Design Day,           !- Name
  Fractional,                             !- Schedule Type Limits Name
  No,                                     !- Interpolate to Timestep
  24:00,                                  !- Time 1 {hh:mm}
  1;                                      !- Value Until Time 1

Schedule:Day:Interval,
  infil_bldg Winter Design Day,           !- Name
  Fractional,                             !- Schedule Type Limits Name
  No,                                     !- Interpolate to Timestep
  24:00,                                  !- Time 1 {hh:mm}
  0;                                      !- Value Until Time 1

Schedule:Day:Interval,
  Schedule Day 1,                         !- Name
  Fractional,                             !- Schedule Type Limits Name
  No,                                     !- Interpolate to Timestep
  24:00,                                  !- Time 1 {hh:mm}
  0;                                      !- Value Until Time 1

Schedule:Week:Daily,
  activity_131.8819816 Week Rule - Jan1-Dec31, !- Name
  activity_131.8819816 Schedule Week Day, !- Sunday Schedule:Day Name
  activity_131.8819816 Schedule Week Day, !- Monday Schedule:Day Name
  activity_131.8819816 Schedule Week Day, !- Tuesday Schedule:Day Name
  activity_131.8819816 Schedule Week Day, !- Wednesday Schedule:Day Name
  activity_131.8819816 Schedule Week Day, !- Thursday Schedule:Day Name
  activity_131.8819816 Schedule Week Day, !- Friday Schedule:Day Name
  activity_131.8819816 Schedule Week Day, !- Saturday Schedule:Day Name
  activity_131.8819816 Schedule Week Day, !- Holiday Schedule:Day Name
  activity_131.8819816 Summer Design Day, !- SummerDesignDay Schedule:Day Name
  activity_131.8819816 Winter Design Day, !- WinterDesignDay Schedule:Day Name
  activity_131.8819816 Schedule Week Day, !- CustomDay1 Schedule:Day Name
  activity_131.8819816 Schedule Week Day; !- CustomDay2 Schedule:Day Name

Schedule:Year,
  activity_131.8819816,                   !- Name
  ActivityLevel,                          !- Schedule Type Limits Name
  activity_131.8819816 Week Rule - Jan1-Dec31, !- Schedule:Week Name 1
  1,                                      !- Start Month 1
  1,                                      !- Start Day 1
  12,                                     !- End Month 1
  31;                                     !- End Day 1

Schedule:Week:Daily,
  Common Office Occupancy - 8 AM to 5 PM Week Rule - Jan1-Dec31, !- Name
  Common Office Occupancy - 8 AM to 5 PM wshc-commonofficeoccupancy-8amto5pm, !- Sunday Schedule:Day Name
  Common Office Occupancy - 8 AM to 5 PM wshc-commonofficeoccupancy-8amto5pm, !- Monday Schedule:Day Name
  Common Office Occupancy - 8 AM to 5 PM wshc-commonofficeoccupancy-8amto5pm, !- Tuesday Schedule:Day Name
  Common Office Occupancy - 8 AM to 5 PM wshc-commonofficeoccupancy-8amto5pm, !- Wednesday Schedule:Day Name
  Common Office Occupancy - 8 AM to 5 PM wshc-commonofficeoccupancy-8amto5pm, !- Thursday Schedule:Day Name
  Common Office Occupancy - 8 AM to 5 PM wshc-commonofficeoccupancy-8amto5pm, !- Friday Schedule:Day Name
  Common Office Occupancy - 8 AM to 5 PM wshc-commonofficeoccupancy-8amto5pm, !- Saturday Schedule:Day Name
  Schedule Day 1,                         !- Holiday Schedule:Day Name
  Common Office Occupancy - 8 AM to 5 PM Summer Design Day, !- SummerDesignDay Schedule:Day Name
  Common Office Occupancy - 8 AM to 5 PM Winter Design Day, !- WinterDesignDay Schedule:Day Name
  Schedule Day 1,                         !- CustomDay1 Schedule:Day Name
  Schedule Day 1;                         !- CustomDay2 Schedule:Day Name

Schedule:Year,
  Common Office Occupancy - 8 AM to 5 PM, !- Name
  Fractional,                             !- Schedule Type Limits Name
  Common Office Occupancy - 8 AM to 5 PM Week Rule - Jan1-Dec31, !- Schedule:Week Name 1
  1,                                      !- Start Month 1
  1,                                      !- Start Day 1
  12,                                     !- End Month 1
  31;                                     !- End Day 1

Schedule:Week:Daily,
  Cooling Setpoint Schedule Week Rule - Jan1-Dec31, !- Name
  Cooling Setpoint Schedule Cooling Setpoint Default Day Schedule, !- Sunday Schedule:Day Name
  Cooling Setpoint Schedule Cooling Setpoint Default Day Schedule, !- Monday Schedule:Day Name
  Cooling Setpoint Schedule Cooling Setpoint Default Day Schedule, !- Tuesday Schedule:Day Name
  Cooling Setpoint Schedule Cooling Setpoint Default Day Schedule, !- Wednesday Schedule:Day Name
  Cooling Setpoint Schedule Cooling Setpoint Default Day Schedule, !- Thursday Schedule:Day Name
  Cooling Setpoint Schedule Cooling Setpoint Default Day Schedule, !- Friday Schedule:Day Name
  Cooling Setpoint Schedule Cooling Setpoint Default Day Schedule, !- Saturday Schedule:Day Name
  Cooling Setpoint Schedule Cooling Setpoint Default Day Schedule, !- Holiday Schedule:Day Name
  Cooling Setpoint Schedule Summer Design Day, !- SummerDesignDay Schedule:Day Name
  Cooling Setpoint Schedule Winter Design Day, !- WinterDesignDay Schedule:Day Name
  Cooling Setpoint Schedule Cooling Setpoint Default Day Schedule, !- CustomDay1 Schedule:Day Name
  Cooling Setpoint Schedule Cooling Setpoint Default Day Schedule; !- CustomDay2 Schedule:Day Name

Schedule:Year,
  Cooling Setpoint Schedule,              !- Name
  Temperature Schedule Type Limits,       !- Schedule Type Limits Name
  Cooling Setpoint Schedule Week Rule - Jan1-Dec31, !- Schedule:Week Name 1
  1,                                      !- Start Month 1
  1,                                      !- Start Day 1
  12,                                     !- End Month 1
  31;                                     !- End Day 1

Schedule:Week:Daily,
  Heating Setpoint Schedule Week Rule - Jan1-Dec31, !- Name
  Heating Setpoint Schedule Heating Setpoint Default Day Schedule, !- Sunday Schedule:Day Name
  Heating Setpoint Schedule Heating Setpoint Default Day Schedule, !- Monday Schedule:Day Name
  Heating Setpoint Schedule Heating Setpoint Default Day Schedule, !- Tuesday Schedule:Day Name
  Heating Setpoint Schedule Heating Setpoint Default Day Schedule, !- Wednesday Schedule:Day Name
  Heating Setpoint Schedule Heating Setpoint Default Day Schedule, !- Thursday Schedule:Day Name
  Heating Setpoint Schedule Heating Setpoint Default Day Schedule, !- Friday Schedule:Day Name
  Heating Setpoint Schedule Heating Setpoint Default Day Schedule, !- Saturday Schedule:Day Name
  Heating Setpoint Schedule Heating Setpoint Default Day Schedule, !- Holiday Schedule:Day Name
  Heating Setpoint Schedule Summer Design Day, !- SummerDesignDay Schedule:Day Name
  Heating Setpoint Schedule Winter Design Day, !- WinterDesignDay Schedule:Day Name
  Heating Setpoint Schedule Heating Setpoint Default Day Schedule, !- CustomDay1 Schedule:Day Name
  Heating Setpoint Schedule Heating Setpoint Default Day Schedule; !- CustomDay2 Schedule:Day Name

Schedule:Year,
  Heating Setpoint Schedule,              !- Name
  Temperature Schedule Type Limits,       !- Schedule Type Limits Name
  Heating Setpoint Schedule Week Rule - Jan1-Dec31, !- Schedule:Week Name 1
  1,                                      !- Start Month 1
  1,                                      !- Start Day 1
  12,                                     !- End Month 1
  31;                                     !- End Day 1

Schedule:Week:Daily,
  infil_bldg Week Rule - Jan1-Dec31,      !- Name
  infil_bldg infil_bldg_default,          !- Sunday Schedule:Day Name
  infil_bldg infil_bldg_default,          !- Monday Schedule:Day Name
  infil_bldg infil_bldg_default,          !- Tuesday Schedule:Day Name
  infil_bldg infil_bldg_default,          !- Wednesday Schedule:Day Name
  infil_bldg infil_bldg_default,          !- Thursday Schedule:Day Name
  infil_bldg infil_bldg_default,          !- Friday Schedule:Day Name
  infil_bldg infil_bldg_default,          !- Saturday Schedule:Day Name
  infil_bldg infil_bldg_default,          !- Holiday Schedule:Day Name
  infil_bldg Summer Design Day,           !- SummerDesignDay Schedule:Day Name
  infil_bldg Winter Design Day,           !- WinterDesignDay Schedule:Day Name
  infil_bldg infil_bldg_default,          !- CustomDay1 Schedule:Day Name
  infil_bldg infil_bldg_default;          !- CustomDay2 Schedule:Day Name

Schedule:Year,
  infil_bldg,                             !- Name
  Fractional,                             !- Schedule Type Limits Name
  infil_bldg Week Rule - Jan1-Dec31,      !- Schedule:Week Name 1
  1,                                      !- Start Month 1
  1,                                      !- Start Day 1
  12,                                     !- End Month 1
  31;                                     !- End Day 1

OutdoorAir:Node,
  Model Outdoor Air Node;                 !- Name

OutputControl:Table:Style,
  XMLandHTML,                             !- Column Separator
  InchPound;                              !- Unit Conversion

Output:SQLite,
  SimpleAndTabular,                       !- Option Type
  None;                                   !- Unit Conversion for Tabular Data

Output:Table:SummaryReports,
  AllSummaryAndSizingPeriod;              !- Report Name 1

Site:Location,
  Boston&#44 MA,                          !- Name
  42.3587227,                             !- Latitude {deg}
  -71.0567627,                            !- Longitude {deg}
  0,                                      !- Time Zone {hr}
  505.2493438;                            !- Elevation {m}

Site:WaterMainsTemperature,
  Correlation,                            !- Calculation Method
  ,                                       !- Temperature Schedule Name
  10.8,                                   !- Annual Average Outdoor Air Temperature {C}
  23.2;                                   !- Maximum Difference In Monthly Average Outdoor Air Temperatures {deltaC}

SizingPeriod:DesignDay,
  Denver Intl Ap Ann Clg .4% Condns DB=>MWB 1, !- Name
  7,                                      !- Month
  21,                                     !- Day of Month
  SummerDesignDay,                        !- Day Type
  34.6,                                   !- Maximum Dry-Bulb Temperature {C}
  15.2,                                   !- Daily Dry-Bulb Temperature Range {deltaC}
  DefaultMultipliers,                     !- Dry-Bulb Temperature Range Modifier Type
  ,                                       !- Dry-Bulb Temperature Range Modifier Day Schedule Name
  Wetbulb,                                !- Humidity Condition Type
  15.7,                                   !- Wetbulb or DewPoint at Maximum Dry-Bulb {C}
  ,                                       !- Humidity Condition Day Schedule Name
  ,                                       !- Humidity Ratio at Maximum Dry-Bulb {kgWater/kgDryAir}
  ,                                       !- Enthalpy at Maximum Dry-Bulb {J/kg}
  ,                                       !- Daily Wet-Bulb Temperature Range {deltaC}
  83011,                                  !- Barometric Pressure {Pa}
  4.2,                                    !- Wind Speed {m/s}
  80,                                     !- Wind Direction {deg}
  No,                                     !- Rain Indicator
  No,                                     !- Snow Indicator
  No,                                     !- Daylight Saving Time Indicator
  ASHRAETau,                              !- Solar Model Indicator
  ,                                       !- Beam Solar Day Schedule Name
  ,                                       !- Diffuse Solar Day Schedule Name
  0.424,                                  !- ASHRAE Clear Sky Optical Depth for Beam Irradiance (taub) {dimensionless}
  2.012,                                  !- ASHRAE Clear Sky Optical Depth for Diffuse Irradiance (taud) {dimensionless}
  ,                                       !- Sky Clearness
  ,                                       !- Maximum Number Warmup Days
  FullResetAtBeginEnvironment;            !- Begin Environment Reset Mode

SizingPeriod:DesignDay,
  Denver Intl Ap Ann Clg .4% Condns WB=>MDB 1, !- Name
  7,                                      !- Month
  21,                                     !- Day of Month
  SummerDesignDay,                        !- Day Type
  27.3,                                   !- Maximum Dry-Bulb Temperature {C}
  15.2,                                   !- Daily Dry-Bulb Temperature Range {deltaC}
  DefaultMultipliers,                     !- Dry-Bulb Temperature Range Modifier Type
  ,                                       !- Dry-Bulb Temperature Range Modifier Day Schedule Name
  Wetbulb,                                !- Humidity Condition Type
  18.3,                                   !- Wetbulb or DewPoint at Maximum Dry-Bulb {C}
  ,                                       !- Humidity Condition Day Schedule Name
  ,                                       !- Humidity Ratio at Maximum Dry-Bulb {kgWater/kgDryAir}
  ,                                       !- Enthalpy at Maximum Dry-Bulb {J/kg}
  ,                                       !- Daily Wet-Bulb Temperature Range {deltaC}
  83011,                                  !- Barometric Pressure {Pa}
  4.2,                                    !- Wind Speed {m/s}
  80,                                     !- Wind Direction {deg}
  No,                                     !- Rain Indicator
  No,                                     !- Snow Indicator
  No,                                     !- Daylight Saving Time Indicator
  ASHRAETau,                              !- Solar Model Indicator
  ,                                       !- Beam Solar Day Schedule Name
  ,                                       !- Diffuse Solar Day Schedule Name
  0.424,                                  !- ASHRAE Clear Sky Optical Depth for Beam Irradiance (taub) {dimensionless}
  2.012,                                  !- ASHRAE Clear Sky Optical Depth for Diffuse Irradiance (taud) {dimensionless}
  ,                                       !- Sky Clearness
  ,                                       !- Maximum Number Warmup Days
  FullResetAtBeginEnvironment;            !- Begin Environment Reset Mode

SizingPeriod:DesignDay,
  Denver Intl Ap Ann Htg 99.6% Condns DB 1, !- Name
  12,                                     !- Month
  21,                                     !- Day of Month
  WinterDesignDay,                        !- Day Type
  -17.4,                                  !- Maximum Dry-Bulb Temperature {C}
  0,                                      !- Daily Dry-Bulb Temperature Range {deltaC}
  DefaultMultipliers,                     !- Dry-Bulb Temperature Range Modifier Type
  ,                                       !- Dry-Bulb Temperature Range Modifier Day Schedule Name
  Wetbulb,                                !- Humidity Condition Type
  -17.4,                                  !- Wetbulb or DewPoint at Maximum Dry-Bulb {C}
  ,                                       !- Humidity Condition Day Schedule Name
  ,                                       !- Humidity Ratio at Maximum Dry-Bulb {kgWater/kgDryAir}
  ,                                       !- Enthalpy at Maximum Dry-Bulb {J/kg}
  ,                                       !- Daily Wet-Bulb Temperature Range {deltaC}
  83011,                                  !- Barometric Pressure {Pa}
  3.3,                                    !- Wind Speed {m/s}
  160,                                    !- Wind Direction {deg}
  No,                                     !- Rain Indicator
  No,                                     !- Snow Indicator
  No,                                     !- Daylight Saving Time Indicator
  ASHRAEClearSky,                         !- Solar Model Indicator
  ,                                       !- Beam Solar Day Schedule Name
  ,                                       !- Diffuse Solar Day Schedule Name
  ,                                       !- ASHRAE Clear Sky Optical Depth for Beam Irradiance (taub) {dimensionless}
  ,                                       !- ASHRAE Clear Sky Optical Depth for Diffuse Irradiance (taud) {dimensionless}
  0,                                      !- Sky Clearness
  ,                                       !- Maximum Number Warmup Days
  FullResetAtBeginEnvironment;            !- Begin Environment Reset Mode

Output:VariableDictionary,
  IDF,                                    !- Key Field
  Unsorted;                               !- Sort Option

LifeCycleCost:NonrecurringCost,
  Default Cost,                           !- Name
  Construction,                           !- Category
  0,                                      !- Cost
  ServicePeriod;                          !- Start of Costs

Output:Variable,
  ,                                       !- Key Value
  Site Outdoor Air Drybulb Temperature,   !- Variable Name
  monthly;                                !- Reporting Frequency

Output:Variable,
  ,                                       !- Key Value
  Zone Air Temperature,                   !- Variable Name
  hourly;                                 !- Reporting Frequency

Output:Variable,
  ,                                       !- Key Value
  Zone Air Relative Humidity,             !- Variable Name
  hourly;                                 !- Reporting Frequency

Output:Table:Monthly,
  Building Energy Performance - FuelOilNo1, !- Name
  2,                                      !- Digits After Decimal
  Heating:FuelOilNo1,                     !- Variable or Meter Name 1
  SumOrAverage,                           !- Aggregation Type for Variable or Meter 1
  Cooling:FuelOilNo1,                     !- Variable or Meter Name 2
  SumOrAverage,                           !- Aggregation Type for Variable or Meter 2
  Interior Lighting:FuelOilNo1,           !- Variable or Meter Name 3
  SumOrAverage,                           !- Aggregation Type for Variable or Meter 3
  Exterior Lighting:FuelOilNo1,           !- Variable or Meter Name 4
  SumOrAverage,                           !- Aggregation Type for Variable or Meter 4
  Interior Equipment:FuelOilNo1,          !- Variable or Meter Name 5
  SumOrAverage,                           !- Aggregation Type for Variable or Meter 5
  Exterior Equipment:FuelOilNo1,          !- Variable or Meter Name 6
  SumOrAverage,                           !- Aggregation Type for Variable or Meter 6
  Fans:FuelOilNo1,                        !- Variable or Meter Name 7
  SumOrAverage,                           !- Aggregation Type for Variable or Meter 7
  Pumps:FuelOilNo1,                       !- Variable or Meter Name 8
  SumOrAverage,                           !- Aggregation Type for Variable or Meter 8
  Heat Rejection:FuelOilNo1,              !- Variable or Meter Name 9
  SumOrAverage,                           !- Aggregation Type for Variable or Meter 9
  Humidification:FuelOilNo1,              !- Variable or Meter Name 10
  SumOrAverage,                           !- Aggregation Type for Variable or Meter 10
  Heat Recovery:FuelOilNo1,               !- Variable or Meter Name 11
  SumOrAverage,                           !- Aggregation Type for Variable or Meter 11
  Water Systems:FuelOilNo1,               !- Variable or Meter Name 12
  SumOrAverage,                           !- Aggregation Type for Variable or Meter 12
  Refrigeration:FuelOilNo1,               !- Variable or Meter Name 13
  SumOrAverage,                           !- Aggregation Type for Variable or Meter 13
  Generators:FuelOilNo1,                  !- Variable or Meter Name 14
  SumOrAverage;                           !- Aggregation Type for Variable or Meter 14

Output:Table:Monthly,
  Building Energy Performance - FuelOilNo2, !- Name
  2,                                      !- Digits After Decimal
  Heating:FuelOilNo2,                     !- Variable or Meter Name 1
  SumOrAverage,                           !- Aggregation Type for Variable or Meter 1
  Cooling:FuelOilNo2,                     !- Variable or Meter Name 2
  SumOrAverage,                           !- Aggregation Type for Variable or Meter 2
  Interior Lighting:FuelOilNo2,           !- Variable or Meter Name 3
  SumOrAverage,                           !- Aggregation Type for Variable or Meter 3
  Exterior Lighting:FuelOilNo2,           !- Variable or Meter Name 4
  SumOrAverage,                           !- Aggregation Type for Variable or Meter 4
  Interior Equipment:FuelOilNo2,          !- Variable or Meter Name 5
  SumOrAverage,                           !- Aggregation Type for Variable or Meter 5
  Exterior Equipment:FuelOilNo2,          !- Variable or Meter Name 6
  SumOrAverage,                           !- Aggregation Type for Variable or Meter 6
  Fans:FuelOilNo2,                        !- Variable or Meter Name 7
  SumOrAverage,                           !- Aggregation Type for Variable or Meter 7
  Pumps:FuelOilNo2,                       !- Variable or Meter Name 8
  SumOrAverage,                           !- Aggregation Type for Variable or Meter 8
  Heat Rejection:FuelOilNo2,              !- Variable or Meter Name 9
  SumOrAverage,                           !- Aggregation Type for Variable or Meter 9
  Humidification:FuelOilNo2,              !- Variable or Meter Name 10
  SumOrAverage,                           !- Aggregation Type for Variable or Meter 10
  Heat Recovery:FuelOilNo2,               !- Variable or Meter Name 11
  SumOrAverage,                           !- Aggregation Type for Variable or Meter 11
  Water Systems:FuelOilNo2,               !- Variable or Meter Name 12
  SumOrAverage,                           !- Aggregation Type for Variable or Meter 12
  Refrigeration:FuelOilNo2,               !- Variable or Meter Name 13
  SumOrAverage,                           !- Aggregation Type for Variable or Meter 13
  Generators:FuelOilNo2,                  !- Variable or Meter Name 14
  SumOrAverage;                           !- Aggregation Type for Variable or Meter 14

Output:Table:Monthly,
  Building Energy Performance - PropaneGas, !- Name
  2,                                      !- Digits After Decimal
  Heating:PropaneGas,                     !- Variable or Meter Name 1
  SumOrAverage,                           !- Aggregation Type for Variable or Meter 1
  Cooling:PropaneGas,                     !- Variable or Meter Name 2
  SumOrAverage,                           !- Aggregation Type for Variable or Meter 2
  Interior Lighting:PropaneGas,           !- Variable or Meter Name 3
  SumOrAverage,                           !- Aggregation Type for Variable or Meter 3
  Exterior Lighting:PropaneGas,           !- Variable or Meter Name 4
  SumOrAverage,                           !- Aggregation Type for Variable or Meter 4
  Interior Equipment:PropaneGas,          !- Variable or Meter Name 5
  SumOrAverage,                           !- Aggregation Type for Variable or Meter 5
  Exterior Equipment:PropaneGas,          !- Variable or Meter Name 6
  SumOrAverage,                           !- Aggregation Type for Variable or Meter 6
  Fans:PropaneGas,                        !- Variable or Meter Name 7
  SumOrAverage,                           !- Aggregation Type for Variable or Meter 7
  Pumps:PropaneGas,                       !- Variable or Meter Name 8
  SumOrAverage,                           !- Aggregation Type for Variable or Meter 8
  Heat Rejection:PropaneGas,              !- Variable or Meter Name 9
  SumOrAverage,                           !- Aggregation Type for Variable or Meter 9
  Humidification:PropaneGas,              !- Variable or Meter Name 10
  SumOrAverage,                           !- Aggregation Type for Variable or Meter 10
  Heat Recovery:PropaneGas,               !- Variable or Meter Name 11
  SumOrAverage,                           !- Aggregation Type for Variable or Meter 11
  Water Systems:PropaneGas,               !- Variable or Meter Name 12
  SumOrAverage,                           !- Aggregation Type for Variable or Meter 12
  Refrigeration:PropaneGas,               !- Variable or Meter Name 13
  SumOrAverage,                           !- Aggregation Type for Variable or Meter 13
  Generators:PropaneGas,                  !- Variable or Meter Name 14
  SumOrAverage;                           !- Aggregation Type for Variable or Meter 14

Output:Table:Monthly,
  Building Energy Performance - Coal,     !- Name
  2,                                      !- Digits After Decimal
  Heating:Coal,                           !- Variable or Meter Name 1
  SumOrAverage,                           !- Aggregation Type for Variable or Meter 1
  Cooling:Coal,                           !- Variable or Meter Name 2
  SumOrAverage,                           !- Aggregation Type for Variable or Meter 2
  Interior Lighting:Coal,                 !- Variable or Meter Name 3
  SumOrAverage,                           !- Aggregation Type for Variable or Meter 3
  Exterior Lighting:Coal,                 !- Variable or Meter Name 4
  SumOrAverage,                           !- Aggregation Type for Variable or Meter 4
  Interior Equipment:Coal,                !- Variable or Meter Name 5
  SumOrAverage,                           !- Aggregation Type for Variable or Meter 5
  Exterior Equipment:Coal,                !- Variable or Meter Name 6
  SumOrAverage,                           !- Aggregation Type for Variable or Meter 6
  Fans:Coal,                              !- Variable or Meter Name 7
  SumOrAverage,                           !- Aggregation Type for Variable or Meter 7
  Pumps:Coal,                             !- Variable or Meter Name 8
  SumOrAverage,                           !- Aggregation Type for Variable or Meter 8
  Heat Rejection:Coal,                    !- Variable or Meter Name 9
  SumOrAverage,                           !- Aggregation Type for Variable or Meter 9
  Humidification:Coal,                    !- Variable or Meter Name 10
  SumOrAverage,                           !- Aggregation Type for Variable or Meter 10
  Heat Recovery:Coal,                     !- Variable or Meter Name 11
  SumOrAverage,                           !- Aggregation Type for Variable or Meter 11
  Water Systems:Coal,                     !- Variable or Meter Name 12
  SumOrAverage,                           !- Aggregation Type for Variable or Meter 12
  Refrigeration:Coal,                     !- Variable or Meter Name 13
  SumOrAverage,                           !- Aggregation Type for Variable or Meter 13
  Generators:Coal,                        !- Variable or Meter Name 14
  SumOrAverage;                           !- Aggregation Type for Variable or Meter 14

Output:Table:Monthly,
  Building Energy Performance - Diesel,   !- Name
  2,                                      !- Digits After Decimal
  Heating:Diesel,                         !- Variable or Meter Name 1
  SumOrAverage,                           !- Aggregation Type for Variable or Meter 1
  Cooling:Diesel,                         !- Variable or Meter Name 2
  SumOrAverage,                           !- Aggregation Type for Variable or Meter 2
  Interior Lighting:Diesel,               !- Variable or Meter Name 3
  SumOrAverage,                           !- Aggregation Type for Variable or Meter 3
  Exterior Lighting:Diesel,               !- Variable or Meter Name 4
  SumOrAverage,                           !- Aggregation Type for Variable or Meter 4
  Interior Equipment:Diesel,              !- Variable or Meter Name 5
  SumOrAverage,                           !- Aggregation Type for Variable or Meter 5
  Exterior Equipment:Diesel,              !- Variable or Meter Name 6
  SumOrAverage,                           !- Aggregation Type for Variable or Meter 6
  Fans:Diesel,                            !- Variable or Meter Name 7
  SumOrAverage,                           !- Aggregation Type for Variable or Meter 7
  Pumps:Diesel,                           !- Variable or Meter Name 8
  SumOrAverage,                           !- Aggregation Type for Variable or Meter 8
  Heat Rejection:Diesel,                  !- Variable or Meter Name 9
  SumOrAverage,                           !- Aggregation Type for Variable or Meter 9
  Humidification:Diesel,                  !- Variable or Meter Name 10
  SumOrAverage,                           !- Aggregation Type for Variable or Meter 10
  Heat Recovery:Diesel,                   !- Variable or Meter Name 11
  SumOrAverage,                           !- Aggregation Type for Variable or Meter 11
  Water Systems:Diesel,                   !- Variable or Meter Name 12
  SumOrAverage,                           !- Aggregation Type for Variable or Meter 12
  Refrigeration:Diesel,                   !- Variable or Meter Name 13
  SumOrAverage,                           !- Aggregation Type for Variable or Meter 13
  Generators:Diesel,                      !- Variable or Meter Name 14
  SumOrAverage;                           !- Aggregation Type for Variable or Meter 14

Output:Table:Monthly,
  Building Energy Performance - Gasoline, !- Name
  2,                                      !- Digits After Decimal
  Heating:Gasoline,                       !- Variable or Meter Name 1
  SumOrAverage,                           !- Aggregation Type for Variable or Meter 1
  Cooling:Gasoline,                       !- Variable or Meter Name 2
  SumOrAverage,                           !- Aggregation Type for Variable or Meter 2
  Interior Lighting:Gasoline,             !- Variable or Meter Name 3
  SumOrAverage,                           !- Aggregation Type for Variable or Meter 3
  Exterior Lighting:Gasoline,             !- Variable or Meter Name 4
  SumOrAverage,                           !- Aggregation Type for Variable or Meter 4
  Interior Equipment:Gasoline,            !- Variable or Meter Name 5
  SumOrAverage,                           !- Aggregation Type for Variable or Meter 5
  Exterior Equipment:Gasoline,            !- Variable or Meter Name 6
  SumOrAverage,                           !- Aggregation Type for Variable or Meter 6
  Fans:Gasoline,                          !- Variable or Meter Name 7
  SumOrAverage,                           !- Aggregation Type for Variable or Meter 7
  Pumps:Gasoline,                         !- Variable or Meter Name 8
  SumOrAverage,                           !- Aggregation Type for Variable or Meter 8
  Heat Rejection:Gasoline,                !- Variable or Meter Name 9
  SumOrAverage,                           !- Aggregation Type for Variable or Meter 9
  Humidification:Gasoline,                !- Variable or Meter Name 10
  SumOrAverage,                           !- Aggregation Type for Variable or Meter 10
  Heat Recovery:Gasoline,                 !- Variable or Meter Name 11
  SumOrAverage,                           !- Aggregation Type for Variable or Meter 11
  Water Systems:Gasoline,                 !- Variable or Meter Name 12
  SumOrAverage,                           !- Aggregation Type for Variable or Meter 12
  Refrigeration:Gasoline,                 !- Variable or Meter Name 13
  SumOrAverage,                           !- Aggregation Type for Variable or Meter 13
  Generators:Gasoline,                    !- Variable or Meter Name 14
  SumOrAverage;                           !- Aggregation Type for Variable or Meter 14

Output:Table:Monthly,
  Building Energy Performance - OtherFuel1, !- Name
  2,                                      !- Digits After Decimal
  Heating:OtherFuel1,                     !- Variable or Meter Name 1
  SumOrAverage,                           !- Aggregation Type for Variable or Meter 1
  Cooling:OtherFuel1,                     !- Variable or Meter Name 2
  SumOrAverage,                           !- Aggregation Type for Variable or Meter 2
  Interior Lighting:OtherFuel1,           !- Variable or Meter Name 3
  SumOrAverage,                           !- Aggregation Type for Variable or Meter 3
  Exterior Lighting:OtherFuel1,           !- Variable or Meter Name 4
  SumOrAverage,                           !- Aggregation Type for Variable or Meter 4
  Interior Equipment:OtherFuel1,          !- Variable or Meter Name 5
  SumOrAverage,                           !- Aggregation Type for Variable or Meter 5
  Exterior Equipment:OtherFuel1,          !- Variable or Meter Name 6
  SumOrAverage,                           !- Aggregation Type for Variable or Meter 6
  Fans:OtherFuel1,                        !- Variable or Meter Name 7
  SumOrAverage,                           !- Aggregation Type for Variable or Meter 7
  Pumps:OtherFuel1,                       !- Variable or Meter Name 8
  SumOrAverage,                           !- Aggregation Type for Variable or Meter 8
  Heat Rejection:OtherFuel1,              !- Variable or Meter Name 9
  SumOrAverage,                           !- Aggregation Type for Variable or Meter 9
  Humidification:OtherFuel1,              !- Variable or Meter Name 10
  SumOrAverage,                           !- Aggregation Type for Variable or Meter 10
  Heat Recovery:OtherFuel1,               !- Variable or Meter Name 11
  SumOrAverage,                           !- Aggregation Type for Variable or Meter 11
  Water Systems:OtherFuel1,               !- Variable or Meter Name 12
  SumOrAverage,                           !- Aggregation Type for Variable or Meter 12
  Refrigeration:OtherFuel1,               !- Variable or Meter Name 13
  SumOrAverage,                           !- Aggregation Type for Variable or Meter 13
  Generators:OtherFuel1,                  !- Variable or Meter Name 14
  SumOrAverage;                           !- Aggregation Type for Variable or Meter 14

Output:Table:Monthly,
  Building Energy Performance - OtherFuel2, !- Name
  2,                                      !- Digits After Decimal
  Heating:OtherFuel2,                     !- Variable or Meter Name 1
  SumOrAverage,                           !- Aggregation Type for Variable or Meter 1
  Cooling:OtherFuel2,                     !- Variable or Meter Name 2
  SumOrAverage,                           !- Aggregation Type for Variable or Meter 2
  Interior Lighting:OtherFuel2,           !- Variable or Meter Name 3
  SumOrAverage,                           !- Aggregation Type for Variable or Meter 3
  Exterior Lighting:OtherFuel2,           !- Variable or Meter Name 4
  SumOrAverage,                           !- Aggregation Type for Variable or Meter 4
  Interior Equipment:OtherFuel2,          !- Variable or Meter Name 5
  SumOrAverage,                           !- Aggregation Type for Variable or Meter 5
  Exterior Equipment:OtherFuel2,          !- Variable or Meter Name 6
  SumOrAverage,                           !- Aggregation Type for Variable or Meter 6
  Fans:OtherFuel2,                        !- Variable or Meter Name 7
  SumOrAverage,                           !- Aggregation Type for Variable or Meter 7
  Pumps:OtherFuel2,                       !- Variable or Meter Name 8
  SumOrAverage,                           !- Aggregation Type for Variable or Meter 8
  Heat Rejection:OtherFuel2,              !- Variable or Meter Name 9
  SumOrAverage,                           !- Aggregation Type for Variable or Meter 9
  Humidification:OtherFuel2,              !- Variable or Meter Name 10
  SumOrAverage,                           !- Aggregation Type for Variable or Meter 10
  Heat Recovery:OtherFuel2,               !- Variable or Meter Name 11
  SumOrAverage,                           !- Aggregation Type for Variable or Meter 11
  Water Systems:OtherFuel2,               !- Variable or Meter Name 12
  SumOrAverage,                           !- Aggregation Type for Variable or Meter 12
  Refrigeration:OtherFuel2,               !- Variable or Meter Name 13
  SumOrAverage,                           !- Aggregation Type for Variable or Meter 13
  Generators:OtherFuel2,                  !- Variable or Meter Name 14
  SumOrAverage;                           !- Aggregation Type for Variable or Meter 14

Output:Table:Monthly,
  Building Energy Performance - Electricity, !- Name
  2,                                      !- Digits After Decimal
  InteriorLights:Electricity,             !- Variable or Meter Name 1
  SumOrAverage,                           !- Aggregation Type for Variable or Meter 1
  ExteriorLights:Electricity,             !- Variable or Meter Name 2
  SumOrAverage,                           !- Aggregation Type for Variable or Meter 2
  InteriorEquipment:Electricity,          !- Variable or Meter Name 3
  SumOrAverage,                           !- Aggregation Type for Variable or Meter 3
  ExteriorEquipment:Electricity,          !- Variable or Meter Name 4
  SumOrAverage,                           !- Aggregation Type for Variable or Meter 4
  Fans:Electricity,                       !- Variable or Meter Name 5
  SumOrAverage,                           !- Aggregation Type for Variable or Meter 5
  Pumps:Electricity,                      !- Variable or Meter Name 6
  SumOrAverage,                           !- Aggregation Type for Variable or Meter 6
  Heating:Electricity,                    !- Variable or Meter Name 7
  SumOrAverage,                           !- Aggregation Type for Variable or Meter 7
  Cooling:Electricity,                    !- Variable or Meter Name 8
  SumOrAverage,                           !- Aggregation Type for Variable or Meter 8
  HeatRejection:Electricity,              !- Variable or Meter Name 9
  SumOrAverage,                           !- Aggregation Type for Variable or Meter 9
  Humidifier:Electricity,                 !- Variable or Meter Name 10
  SumOrAverage,                           !- Aggregation Type for Variable or Meter 10
  HeatRecovery:Electricity,               !- Variable or Meter Name 11
  SumOrAverage,                           !- Aggregation Type for Variable or Meter 11
  WaterSystems:Electricity,               !- Variable or Meter Name 12
  SumOrAverage,                           !- Aggregation Type for Variable or Meter 12
  Cogeneration:Electricity,               !- Variable or Meter Name 13
  SumOrAverage,                           !- Aggregation Type for Variable or Meter 13
  Refrigeration:Electricity,              !- Variable or Meter Name 14
  SumOrAverage;                           !- Aggregation Type for Variable or Meter 14

Output:Table:Monthly,
  Building Energy Performance - Natural Gas, !- Name
  2,                                      !- Digits After Decimal
  InteriorEquipment:NaturalGas,           !- Variable or Meter Name 1
  SumOrAverage,                           !- Aggregation Type for Variable or Meter 1
  ExteriorEquipment:NaturalGas,           !- Variable or Meter Name 2
  SumOrAverage,                           !- Aggregation Type for Variable or Meter 2
  Heating:NaturalGas,                     !- Variable or Meter Name 3
  SumOrAverage,                           !- Aggregation Type for Variable or Meter 3
  Cooling:NaturalGas,                     !- Variable or Meter Name 4
  SumOrAverage,                           !- Aggregation Type for Variable or Meter 4
  WaterSystems:NaturalGas,                !- Variable or Meter Name 5
  SumOrAverage,                           !- Aggregation Type for Variable or Meter 5
  Cogeneration:NaturalGas,                !- Variable or Meter Name 6
  SumOrAverage;                           !- Aggregation Type for Variable or Meter 6

Output:Table:Monthly,
  Building Energy Performance - District Heating Water, !- Name
  2,                                      !- Digits After Decimal
  InteriorLights:DistrictHeatingWater,    !- Variable or Meter Name 1
  SumOrAverage,                           !- Aggregation Type for Variable or Meter 1
  ExteriorLights:DistrictHeatingWater,    !- Variable or Meter Name 2
  SumOrAverage,                           !- Aggregation Type for Variable or Meter 2
  InteriorEquipment:DistrictHeatingWater, !- Variable or Meter Name 3
  SumOrAverage,                           !- Aggregation Type for Variable or Meter 3
  ExteriorEquipment:DistrictHeatingWater, !- Variable or Meter Name 4
  SumOrAverage,                           !- Aggregation Type for Variable or Meter 4
  Fans:DistrictHeatingWater,              !- Variable or Meter Name 5
  SumOrAverage,                           !- Aggregation Type for Variable or Meter 5
  Pumps:DistrictHeatingWater,             !- Variable or Meter Name 6
  SumOrAverage,                           !- Aggregation Type for Variable or Meter 6
  Heating:DistrictHeatingWater,           !- Variable or Meter Name 7
  SumOrAverage,                           !- Aggregation Type for Variable or Meter 7
  Cooling:DistrictHeatingWater,           !- Variable or Meter Name 8
  SumOrAverage,                           !- Aggregation Type for Variable or Meter 8
  HeatRejection:DistrictHeatingWater,     !- Variable or Meter Name 9
  SumOrAverage,                           !- Aggregation Type for Variable or Meter 9
  Humidifier:DistrictHeatingWater,        !- Variable or Meter Name 10
  SumOrAverage,                           !- Aggregation Type for Variable or Meter 10
  HeatRecovery:DistrictHeatingWater,      !- Variable or Meter Name 11
  SumOrAverage,                           !- Aggregation Type for Variable or Meter 11
  WaterSystems:DistrictHeatingWater,      !- Variable or Meter Name 12
  SumOrAverage,                           !- Aggregation Type for Variable or Meter 12
  Cogeneration:DistrictHeatingWater,      !- Variable or Meter Name 13
  SumOrAverage;                           !- Aggregation Type for Variable or Meter 13

Output:Table:Monthly,
  Building Energy Performance - District Cooling, !- Name
  2,                                      !- Digits After Decimal
  InteriorLights:DistrictCooling,         !- Variable or Meter Name 1
  SumOrAverage,                           !- Aggregation Type for Variable or Meter 1
  ExteriorLights:DistrictCooling,         !- Variable or Meter Name 2
  SumOrAverage,                           !- Aggregation Type for Variable or Meter 2
  InteriorEquipment:DistrictCooling,      !- Variable or Meter Name 3
  SumOrAverage,                           !- Aggregation Type for Variable or Meter 3
  ExteriorEquipment:DistrictCooling,      !- Variable or Meter Name 4
  SumOrAverage,                           !- Aggregation Type for Variable or Meter 4
  Fans:DistrictCooling,                   !- Variable or Meter Name 5
  SumOrAverage,                           !- Aggregation Type for Variable or Meter 5
  Pumps:DistrictCooling,                  !- Variable or Meter Name 6
  SumOrAverage,                           !- Aggregation Type for Variable or Meter 6
  Heating:DistrictCooling,                !- Variable or Meter Name 7
  SumOrAverage,                           !- Aggregation Type for Variable or Meter 7
  Cooling:DistrictCooling,                !- Variable or Meter Name 8
  SumOrAverage,                           !- Aggregation Type for Variable or Meter 8
  HeatRejection:DistrictCooling,          !- Variable or Meter Name 9
  SumOrAverage,                           !- Aggregation Type for Variable or Meter 9
  Humidifier:DistrictCooling,             !- Variable or Meter Name 10
  SumOrAverage,                           !- Aggregation Type for Variable or Meter 10
  HeatRecovery:DistrictCooling,           !- Variable or Meter Name 11
  SumOrAverage,                           !- Aggregation Type for Variable or Meter 11
  WaterSystems:DistrictCooling,           !- Variable or Meter Name 12
  SumOrAverage,                           !- Aggregation Type for Variable or Meter 12
  Cogeneration:DistrictCooling,           !- Variable or Meter Name 13
  SumOrAverage;                           !- Aggregation Type for Variable or Meter 13

Output:Table:Monthly,
  Building Energy Performance - Electricity Peak Demand, !- Name
  2,                                      !- Digits After Decimal
  Electricity:Facility,                   !- Variable or Meter Name 1
  Maximum,                                !- Aggregation Type for Variable or Meter 1
  InteriorLights:Electricity,             !- Variable or Meter Name 2
  ValueWhenMaximumOrMinimum,              !- Aggregation Type for Variable or Meter 2
  ExteriorLights:Electricity,             !- Variable or Meter Name 3
  ValueWhenMaximumOrMinimum,              !- Aggregation Type for Variable or Meter 3
  InteriorEquipment:Electricity,          !- Variable or Meter Name 4
  ValueWhenMaximumOrMinimum,              !- Aggregation Type for Variable or Meter 4
  ExteriorEquipment:Electricity,          !- Variable or Meter Name 5
  ValueWhenMaximumOrMinimum,              !- Aggregation Type for Variable or Meter 5
  Fans:Electricity,                       !- Variable or Meter Name 6
  ValueWhenMaximumOrMinimum,              !- Aggregation Type for Variable or Meter 6
  Pumps:Electricity,                      !- Variable or Meter Name 7
  ValueWhenMaximumOrMinimum,              !- Aggregation Type for Variable or Meter 7
  Heating:Electricity,                    !- Variable or Meter Name 8
  ValueWhenMaximumOrMinimum,              !- Aggregation Type for Variable or Meter 8
  Cooling:Electricity,                    !- Variable or Meter Name 9
  ValueWhenMaximumOrMinimum,              !- Aggregation Type for Variable or Meter 9
  HeatRejection:Electricity,              !- Variable or Meter Name 10
  ValueWhenMaximumOrMinimum,              !- Aggregation Type for Variable or Meter 10
  Humidifier:Electricity,                 !- Variable or Meter Name 11
  ValueWhenMaximumOrMinimum,              !- Aggregation Type for Variable or Meter 11
  HeatRecovery:Electricity,               !- Variable or Meter Name 12
  ValueWhenMaximumOrMinimum,              !- Aggregation Type for Variable or Meter 12
  WaterSystems:Electricity,               !- Variable or Meter Name 13
  ValueWhenMaximumOrMinimum,              !- Aggregation Type for Variable or Meter 13
  Cogeneration:Electricity,               !- Variable or Meter Name 14
  ValueWhenMaximumOrMinimum,              !- Aggregation Type for Variable or Meter 14
  Refrigeration:Electricity,              !- Variable or Meter Name 15
  ValueWhenMaximumOrMinimum;              !- Aggregation Type for Variable or Meter 15

Output:Table:Monthly,
  Building Energy Performance - Natural Gas Peak Demand, !- Name
  2,                                      !- Digits After Decimal
  NaturalGas:Facility,                    !- Variable or Meter Name 1
  Maximum,                                !- Aggregation Type for Variable or Meter 1
  InteriorEquipment:NaturalGas,           !- Variable or Meter Name 2
  ValueWhenMaximumOrMinimum,              !- Aggregation Type for Variable or Meter 2
  ExteriorEquipment:NaturalGas,           !- Variable or Meter Name 3
  ValueWhenMaximumOrMinimum,              !- Aggregation Type for Variable or Meter 3
  Heating:NaturalGas,                     !- Variable or Meter Name 4
  ValueWhenMaximumOrMinimum,              !- Aggregation Type for Variable or Meter 4
  Cooling:NaturalGas,                     !- Variable or Meter Name 5
  ValueWhenMaximumOrMinimum,              !- Aggregation Type for Variable or Meter 5
  WaterSystems:NaturalGas,                !- Variable or Meter Name 6
  ValueWhenMaximumOrMinimum,              !- Aggregation Type for Variable or Meter 6
  Cogeneration:NaturalGas,                !- Variable or Meter Name 7
  ValueWhenMaximumOrMinimum;              !- Aggregation Type for Variable or Meter 7

Output:Table:Monthly,
  Building Energy Performance - District Heating Water Peak Demand, !- Name
  2,                                      !- Digits After Decimal
  DistrictHeatingWater:Facility,          !- Variable or Meter Name 1
  Maximum,                                !- Aggregation Type for Variable or Meter 1
  InteriorLights:DistrictHeatingWater,    !- Variable or Meter Name 2
  ValueWhenMaximumOrMinimum,              !- Aggregation Type for Variable or Meter 2
  ExteriorLights:DistrictHeatingWater,    !- Variable or Meter Name 3
  ValueWhenMaximumOrMinimum,              !- Aggregation Type for Variable or Meter 3
  InteriorEquipment:DistrictHeatingWater, !- Variable or Meter Name 4
  ValueWhenMaximumOrMinimum,              !- Aggregation Type for Variable or Meter 4
  ExteriorEquipment:DistrictHeatingWater, !- Variable or Meter Name 5
  ValueWhenMaximumOrMinimum,              !- Aggregation Type for Variable or Meter 5
  Fans:DistrictHeatingWater,              !- Variable or Meter Name 6
  ValueWhenMaximumOrMinimum,              !- Aggregation Type for Variable or Meter 6
  Pumps:DistrictHeatingWater,             !- Variable or Meter Name 7
  ValueWhenMaximumOrMinimum,              !- Aggregation Type for Variable or Meter 7
  Heating:DistrictHeatingWater,           !- Variable or Meter Name 8
  ValueWhenMaximumOrMinimum,              !- Aggregation Type for Variable or Meter 8
  Cooling:DistrictHeatingWater,           !- Variable or Meter Name 9
  ValueWhenMaximumOrMinimum,              !- Aggregation Type for Variable or Meter 9
  HeatRejection:DistrictHeatingWater,     !- Variable or Meter Name 10
  ValueWhenMaximumOrMinimum,              !- Aggregation Type for Variable or Meter 10
  Humidifier:DistrictHeatingWater,        !- Variable or Meter Name 11
  ValueWhenMaximumOrMinimum,              !- Aggregation Type for Variable or Meter 11
  HeatRecovery:DistrictHeatingWater,      !- Variable or Meter Name 12
  ValueWhenMaximumOrMinimum,              !- Aggregation Type for Variable or Meter 12
  WaterSystems:DistrictHeatingWater,      !- Variable or Meter Name 13
  ValueWhenMaximumOrMinimum,              !- Aggregation Type for Variable or Meter 13
  Cogeneration:DistrictHeatingWater,      !- Variable or Meter Name 14
  ValueWhenMaximumOrMinimum;              !- Aggregation Type for Variable or Meter 14

Output:Table:Monthly,
  Building Energy Performance - District Cooling Peak Demand, !- Name
  2,                                      !- Digits After Decimal
  DistrictCooling:Facility,               !- Variable or Meter Name 1
  Maximum,                                !- Aggregation Type for Variable or Meter 1
  InteriorLights:DistrictCooling,         !- Variable or Meter Name 2
  ValueWhenMaximumOrMinimum,              !- Aggregation Type for Variable or Meter 2
  ExteriorLights:DistrictCooling,         !- Variable or Meter Name 3
  ValueWhenMaximumOrMinimum,              !- Aggregation Type for Variable or Meter 3
  InteriorEquipment:DistrictCooling,      !- Variable or Meter Name 4
  ValueWhenMaximumOrMinimum,              !- Aggregation Type for Variable or Meter 4
  ExteriorEquipment:DistrictCooling,      !- Variable or Meter Name 5
  ValueWhenMaximumOrMinimum,              !- Aggregation Type for Variable or Meter 5
  Fans:DistrictCooling,                   !- Variable or Meter Name 6
  ValueWhenMaximumOrMinimum,              !- Aggregation Type for Variable or Meter 6
  Pumps:DistrictCooling,                  !- Variable or Meter Name 7
  ValueWhenMaximumOrMinimum,              !- Aggregation Type for Variable or Meter 7
  Heating:DistrictCooling,                !- Variable or Meter Name 8
  ValueWhenMaximumOrMinimum,              !- Aggregation Type for Variable or Meter 8
  Cooling:DistrictCooling,                !- Variable or Meter Name 9
  ValueWhenMaximumOrMinimum,              !- Aggregation Type for Variable or Meter 9
  HeatRejection:DistrictCooling,          !- Variable or Meter Name 10
  ValueWhenMaximumOrMinimum,              !- Aggregation Type for Variable or Meter 10
  Humidifier:DistrictCooling,             !- Variable or Meter Name 11
  ValueWhenMaximumOrMinimum,              !- Aggregation Type for Variable or Meter 11
  HeatRecovery:DistrictCooling,           !- Variable or Meter Name 12
  ValueWhenMaximumOrMinimum,              !- Aggregation Type for Variable or Meter 12
  WaterSystems:DistrictCooling,           !- Variable or Meter Name 13
  ValueWhenMaximumOrMinimum,              !- Aggregation Type for Variable or Meter 13
  Cogeneration:DistrictCooling,           !- Variable or Meter Name 14
  ValueWhenMaximumOrMinimum;              !- Aggregation Type for Variable or Meter 14

Output:Meter:MeterFileOnly,
  NaturalGas:Facility,                    !- Key Name
  Daily;                                  !- Reporting Frequency

Output:Meter:MeterFileOnly,
  Electricity:Facility,                   !- Key Name
  Timestep;                               !- Reporting Frequency

Output:Meter:MeterFileOnly,
  Electricity:Facility,                   !- Key Name
  Daily;                                  !- Reporting Frequency

Output:Meter,
  Electricity:Facility,                   !- Key Name
  Timestep;                               !- Reporting Frequency

Output:Meter,
  NaturalGas:Facility,                    !- Key Name
  Timestep;                               !- Reporting Frequency

Output:Meter,
  DistrictHeatingWater:Facility,          !- Key Name
  Timestep;                               !- Reporting Frequency

Output:Meter,
  DistrictCooling:Facility,               !- Key Name
  Timestep;                               !- Reporting Frequency

